 vasp.5.4.4.18Apr17-6-g9f103f2a35 (build Nov 07 2022 11:18:25) complex

 executed on             LinuxIFC date 2024.05.28  10:01:52

 INCAR:
 POTCAR:    PAW_PBE Al 04Jan2001

   TITEL  = PAW_PBE Al 04Jan2001
   POMASS =   26.981; ZVAL   =    3.000    mass and valenz
   ENMAX  =  240.300; ENMIN  =  180.225 eV

 Optimization of the real space projectors (new method)

 maximal supplied QI-value         = 19.84
 optimisation between [QCUT,QGAM] = [ 10.12, 20.44] = [ 28.68,116.96] Ry
 Optimized for a Real-space Cutoff    1.38 Angstroem

   l    n(q)    QCUT    max X(q) W(low)/X(q) W(high)/X(q)  e(spline)
   0      8    10.119   176.870    0.39E-04    0.93E-04    0.54E-07
   0      8    10.119   105.762    0.37E-04    0.91E-04    0.53E-07
   1      8    10.119    55.370    0.18E-03    0.13E-03    0.19E-06
   1      8    10.119    20.208    0.17E-03    0.12E-03    0.18E-06
  PAW_PBE Al 04Jan2001                  :

 POSCAR: Al8
  positions in direct lattice
 exchange correlation table for  LEXCH =        8
   RHO(1)=    0.500       N(1)  =     2000
   RHO(2)=  100.500       N(2)  =     4000

 ion  position               nearest neighbor table
   1  0.750  0.000  0.094-   2 2.86   2 2.86   4 2.86   4 2.86   3 2.86   2 2.86   4 2.86   2 2.86
                             4 2.86
   2  0.250  0.500  0.031-   1 2.86   1 2.86   4 2.86   1 2.86   1 2.86
   3  0.750  0.000  0.219-   4 2.86   4 2.86   6 2.86   6 2.86   5 2.86   1 2.86   4 2.86   6 2.86
                             4 2.86   6 2.86
   4  0.250  0.500  0.156-   1 2.86   1 2.86   3 2.86   3 2.86   6 2.86   2 2.86   1 2.86   3 2.86
                             1 2.86   3 2.86
   5  0.750  0.000  0.344-   6 2.86   6 2.86   8 2.86   8 2.86   7 2.86   3 2.86   6 2.86   8 2.86
                             6 2.86   8 2.86
   6  0.250  0.500  0.281-   3 2.86   3 2.86   5 2.86   5 2.86   8 2.86   4 2.86   3 2.86   5 2.86
                             3 2.86   5 2.86
   7  0.750  0.000  0.469-   8 2.86   8 2.86   5 2.86   8 2.86   8 2.86
   8  0.250  0.500  0.406-   5 2.86   5 2.86   7 2.86   7 2.86   6 2.86   5 2.86   7 2.86   5 2.86
                             7 2.86

  LATTYP: Found a simple monoclinic cell.
 ALAT       =    23.0266843847
 B/A-ratio  =     0.1754021389
 C/A-ratio  =     1.9883751365
 COS(beta)  =    -0.9980828797

  Lattice vectors:

 A1 = (  -2.8659545748,   0.0000000000, -22.8476365983)
 A2 = (   0.0000000000,  -4.0389296932,   0.0000000000)
 A3 = (   2.8759545748,   0.0000000000,  45.6952731966)

Analysis of symmetry for initial positions (statically):
 Subroutine PRICEL returns:
 Original cell was already a primitive cell.

 Routine SETGRP: Setting up the symmetry group for a
 simple monoclinic supercell.

 Subroutine GETGRP returns: Found  4 space group operations
 (whereof  2 operations were pure point group operations)
 out of a pool of  4 trial point group operations.

The static configuration has the point symmetry C_1h.
 The point group associated with its full space group is C_2h.

Analysis of symmetry for dynamics (positions and initial velocities):
 Subroutine PRICEL returns:
 Original cell was already a primitive cell.

 Routine SETGRP: Setting up the symmetry group for a
 simple monoclinic supercell.

 Subroutine GETGRP returns: Found  4 space group operations
 (whereof  2 operations were pure point group operations)
 out of a pool of  4 trial point group operations.

The dynamic configuration has the point symmetry C_1h.
 The point group associated with its full space group is C_2h.

 Subroutine INISYM returns: Found  4 space group operations
 (whereof  2 operations are pure point group operations),
 and found     1 'primitive' translations

 KPOINTS: Automatic kpoint scheme

Automatic generation of k-mesh.
Space group operators:
 irot       det(A)        alpha          n_x          n_y          n_z        tau_x        tau_y        tau_z
    1     1.000000     0.000001     1.000000     0.000000     0.000000     0.000000     0.000000     0.000000
    2    -1.000000   180.000000     0.000000     1.000000     0.000000     0.000000     0.000000     0.000000
    3    -1.000000     0.000001     1.000000     0.000000     0.000000    -0.000000    -0.500000     0.500000
    4     1.000000   180.000000     0.000000     1.000000     0.000000    -0.000000    -0.500000     0.500000

 Subroutine IBZKPT returns following result:

 Found    560 irreducible k-points:

 Following reciprocal coordinates:
            Coordinates               Weight
  0.017857  0.025000  0.125000      4.000000
  0.053571  0.025000  0.125000      4.000000
  0.089286  0.025000  0.125000      4.000000
  0.125000  0.025000  0.125000      4.000000
  0.160714  0.025000  0.125000      4.000000
  0.196429  0.025000  0.125000      4.000000
  0.232143  0.025000  0.125000      4.000000
  0.267857  0.025000  0.125000      4.000000
  0.303571  0.025000  0.125000      4.000000
  0.339286  0.025000  0.125000      4.000000
  0.375000  0.025000  0.125000      4.000000
  0.410714  0.025000  0.125000      4.000000
  0.446429  0.025000  0.125000      4.000000
  0.482143  0.025000  0.125000      4.000000
 -0.482143  0.025000  0.125000      4.000000
 -0.446429  0.025000  0.125000      4.000000
 -0.410714  0.025000  0.125000      4.000000
 -0.375000  0.025000  0.125000      4.000000
 -0.339286  0.025000  0.125000      4.000000
 -0.303571  0.025000  0.125000      4.000000
 -0.267857  0.025000  0.125000      4.000000
 -0.232143  0.025000  0.125000      4.000000
 -0.196429  0.025000  0.125000      4.000000
 -0.160714  0.025000  0.125000      4.000000
 -0.125000  0.025000  0.125000      4.000000
 -0.089286  0.025000  0.125000      4.000000
 -0.053571  0.025000  0.125000      4.000000
 -0.017857  0.025000  0.125000      4.000000
  0.017857  0.075000  0.125000      4.000000
  0.053571  0.075000  0.125000      4.000000
  0.089286  0.075000  0.125000      4.000000
  0.125000  0.075000  0.125000      4.000000
  0.160714  0.075000  0.125000      4.000000
  0.196429  0.075000  0.125000      4.000000
  0.232143  0.075000  0.125000      4.000000
  0.267857  0.075000  0.125000      4.000000
  0.303571  0.075000  0.125000      4.000000
  0.339286  0.075000  0.125000      4.000000
  0.375000  0.075000  0.125000      4.000000
  0.410714  0.075000  0.125000      4.000000
  0.446429  0.075000  0.125000      4.000000
  0.482143  0.075000  0.125000      4.000000
 -0.482143  0.075000  0.125000      4.000000
 -0.446429  0.075000  0.125000      4.000000
 -0.410714  0.075000  0.125000      4.000000
 -0.375000  0.075000  0.125000      4.000000
 -0.339286  0.075000  0.125000      4.000000
 -0.303571  0.075000  0.125000      4.000000
 -0.267857  0.075000  0.125000      4.000000
 -0.232143  0.075000  0.125000      4.000000
 -0.196429  0.075000  0.125000      4.000000
 -0.160714  0.075000  0.125000      4.000000
 -0.125000  0.075000  0.125000      4.000000
 -0.089286  0.075000  0.125000      4.000000
 -0.053571  0.075000  0.125000      4.000000
 -0.017857  0.075000  0.125000      4.000000
  0.017857  0.125000  0.125000      4.000000
  0.053571  0.125000  0.125000      4.000000
  0.089286  0.125000  0.125000      4.000000
  0.125000  0.125000  0.125000      4.000000
[...]
  0.482143  0.475000  0.375000      4.000000
 -0.482143  0.475000  0.375000      4.000000
 -0.446429  0.475000  0.375000      4.000000
 -0.410714  0.475000  0.375000      4.000000
 -0.375000  0.475000  0.375000      4.000000
 -0.339286  0.475000  0.375000      4.000000
 -0.303571  0.475000  0.375000      4.000000
 -0.267857  0.475000  0.375000      4.000000
 -0.232143  0.475000  0.375000      4.000000
 -0.196429  0.475000  0.375000      4.000000
 -0.160714  0.475000  0.375000      4.000000
 -0.125000  0.475000  0.375000      4.000000
 -0.089286  0.475000  0.375000      4.000000
 -0.053571  0.475000  0.375000      4.000000
 -0.017857  0.475000  0.375000      4.000000

 Following cartesian coordinates:
            Coordinates               Weight
  0.006253  0.006190  0.005468      4.000000
  0.018758  0.006190  0.005463      4.000000
  0.031263  0.006190  0.005457      4.000000
  0.043768  0.006190  0.005452      4.000000
  0.056273  0.006190  0.005446      4.000000
  0.068779  0.006190  0.005441      4.000000
  0.081284  0.006190  0.005435      4.000000
  0.093789  0.006190  0.005430      4.000000
  0.106294  0.006190  0.005425      4.000000
  0.118799  0.006190  0.005419      4.000000
  0.131305  0.006190  0.005414      4.000000
  0.143810  0.006190  0.005408      4.000000
  0.156315  0.006190  0.005403      4.000000
  0.168820  0.006190  0.005397      4.000000
 -0.168820  0.006190  0.005545      4.000000
 -0.156315  0.006190  0.005539      4.000000
 -0.143810  0.006190  0.005534      4.000000
 -0.131305  0.006190  0.005528      4.000000
 -0.118799  0.006190  0.005523      4.000000
 -0.106294  0.006190  0.005518      4.000000
 -0.093789  0.006190  0.005512      4.000000
 -0.081284  0.006190  0.005507      4.000000
 -0.068779  0.006190  0.005501      4.000000
 -0.056273  0.006190  0.005496      4.000000
 -0.043768  0.006190  0.005490      4.000000
 -0.031263  0.006190  0.005485      4.000000
 -0.018758  0.006190  0.005479      4.000000
 -0.006253  0.006190  0.005474      4.000000
  0.006253  0.018569  0.005468      4.000000
  0.018758  0.018569  0.005463      4.000000
  0.031263  0.018569  0.005457      4.000000
  0.043768  0.018569  0.005452      4.000000
  0.056273  0.018569  0.005446      4.000000
  0.068779  0.018569  0.005441      4.000000
  0.081284  0.018569  0.005435      4.000000
  0.093789  0.018569  0.005430      4.000000
  0.106294  0.018569  0.005425      4.000000
  0.118799  0.018569  0.005419      4.000000
  0.131305  0.018569  0.005414      4.000000
  0.143810  0.018569  0.005408      4.000000
  0.156315  0.018569  0.005403      4.000000
  0.168820  0.018569  0.005397      4.000000
 -0.168820  0.018569  0.005545      4.000000
 -0.156315  0.018569  0.005539      4.000000
 -0.143810  0.018569  0.005534      4.000000
 -0.131305  0.018569  0.005528      4.000000
 -0.118799  0.018569  0.005523      4.000000
 -0.106294  0.018569  0.005518      4.000000
 -0.093789  0.018569  0.005512      4.000000
 -0.081284  0.018569  0.005507      4.000000
 -0.068779  0.018569  0.005501      4.000000
 -0.056273  0.018569  0.005496      4.000000
 -0.043768  0.018569  0.005490      4.000000
 -0.031263  0.018569  0.005485      4.000000
 -0.018758  0.018569  0.005479      4.000000
 -0.006253  0.018569  0.005474      4.000000
  0.006253  0.030949  0.005468      4.000000
  0.018758  0.030949  0.005463      4.000000
  0.031263  0.030949  0.005457      4.000000
  0.043768  0.030949  0.005452      4.000000
[...]
  0.168820  0.117605  0.016339      4.000000
 -0.168820  0.117605  0.016487      4.000000
 -0.156315  0.117605  0.016481      4.000000
 -0.143810  0.117605  0.016476      4.000000
 -0.131305  0.117605  0.016471      4.000000
 -0.118799  0.117605  0.016465      4.000000
 -0.106294  0.117605  0.016460      4.000000
 -0.093789  0.117605  0.016454      4.000000
 -0.081284  0.117605  0.016449      4.000000
 -0.068779  0.117605  0.016443      4.000000
 -0.056273  0.117605  0.016438      4.000000
 -0.043768  0.117605  0.016432      4.000000
[...]
 k-point 49 :  -0.2679 0.0750 0.1250  plane waves:    4797
 k-point 50 :  -0.2321 0.0750 0.1250  plane waves:    4792
 k-point 51 :  -0.1964 0.0750 0.1250  plane waves:    4784
 k-point 52 :  -0.1607 0.0750 0.1250  plane waves:    4784
 k-point 53 :  -0.1250 0.0750 0.1250  plane waves:    4794
 k-point 54 :  -0.0893 0.0750 0.1250  plane waves:    4804
 k-point 55 :  -0.0536 0.0750 0.1250  plane waves:    4803
 k-point 56 :  -0.0179 0.0750 0.1250  plane waves:    4805
 k-point 57 :   0.0179 0.1250 0.1250  plane waves:    4813
 k-point 58 :   0.0536 0.1250 0.1250  plane waves:    4807
 k-point 59 :   0.0893 0.1250 0.1250  plane waves:    4806
 k-point 60 :   0.1250 0.1250 0.1250  plane waves:    4791
[...]
 k-point 85 :   0.0179 0.1750 0.1250  plane waves:    4814
 k-point 86 :   0.0536 0.1750 0.1250  plane waves:    4815
 k-point 87 :   0.0893 0.1750 0.1250  plane waves:    4805
 k-point 88 :   0.1250 0.1750 0.1250  plane waves:    4803
 k-point 89 :   0.1607 0.1750 0.1250  plane waves:    4795
 k-point 90 :   0.1964 0.1750 0.1250  plane waves:    4784
 k-point 91 :   0.2321 0.1750 0.1250  plane waves:    4786
 k-point 92 :   0.2679 0.1750 0.1250  plane waves:    4793
 k-point 93 :   0.3036 0.1750 0.1250  plane waves:    4783
 k-point 94 :   0.3393 0.1750 0.1250  plane waves:    4770
 k-point 95 :   0.3750 0.1750 0.1250  plane waves:    4776
 k-point 96 :   0.4107 0.1750 0.1250  plane waves:    4792
 k-point 97 :   0.4464 0.1750 0.1250  plane waves:    4797
 k-point 98 :   0.4821 0.1750 0.1250  plane waves:    4795
 k-point 99 :  -0.4821 0.1750 0.1250  plane waves:    4797
 k-point ** :  -0.4464 0.1750 0.1250  plane waves:    4798
 k-point ** :  -0.4107 0.1750 0.1250  plane waves:    4792
 k-point ** :  -0.3750 0.1750 0.1250  plane waves:    4775
 k-point ** :  -0.3393 0.1750 0.1250  plane waves:    4772
 k-point ** :  -0.3036 0.1750 0.1250  plane waves:    4786
 k-point ** :  -0.2679 0.1750 0.1250  plane waves:    4790
 k-point ** :  -0.2321 0.1750 0.1250  plane waves:    4787
 k-point ** :  -0.1964 0.1750 0.1250  plane waves:    4784
 k-point ** :  -0.1607 0.1750 0.1250  plane waves:    4798
 k-point ** :  -0.1250 0.1750 0.1250  plane waves:    4806
 k-point ** :  -0.0893 0.1750 0.1250  plane waves:    4806
 k-point ** :  -0.0536 0.1750 0.1250  plane waves:    4813
 k-point ** :  -0.0179 0.1750 0.1250  plane waves:    4816
 k-point ** :   0.0179 0.2250 0.1250  plane waves:    4821
 k-point ** :   0.0536 0.2250 0.1250  plane waves:    4819
 k-point ** :   0.0893 0.2250 0.1250  plane waves:    4808
 k-point ** :   0.1250 0.2250 0.1250  plane waves:    4801
 k-point ** :   0.1607 0.2250 0.1250  plane waves:    4794
 k-point ** :   0.1964 0.2250 0.1250  plane waves:    4791
 k-point ** :   0.2321 0.2250 0.1250  plane waves:    4785
 k-point ** :   0.2679 0.2250 0.1250  plane waves:    4783
 k-point ** :   0.3036 0.2250 0.1250  plane waves:    4780
 k-point ** :   0.3393 0.2250 0.1250  plane waves:    4770
 k-point ** :   0.3750 0.2250 0.1250  plane waves:    4777
 k-point ** :   0.4107 0.2250 0.1250  plane waves:    4778
 k-point ** :   0.4464 0.2250 0.1250  plane waves:    4781
 k-point ** :   0.4821 0.2250 0.1250  plane waves:    4787
 k-point ** :  -0.4821 0.2250 0.1250  plane waves:    4785
 k-point ** :  -0.4464 0.2250 0.1250  plane waves:    4782
 k-point ** :  -0.4107 0.2250 0.1250  plane waves:    4777
 k-point ** :  -0.3750 0.2250 0.1250  plane waves:    4780
 k-point ** :  -0.3393 0.2250 0.1250  plane waves:    4768
 k-point ** :  -0.3036 0.2250 0.1250  plane waves:    4780
 k-point ** :  -0.2679 0.2250 0.1250  plane waves:    4784
 k-point ** :  -0.2321 0.2250 0.1250  plane waves:    4785
 k-point ** :  -0.1964 0.2250 0.1250  plane waves:    4789
 k-point ** :  -0.1607 0.2250 0.1250  plane waves:    4795
 k-point ** :  -0.1250 0.2250 0.1250  plane waves:    4801
 k-point ** :  -0.0893 0.2250 0.1250  plane waves:    4808
 k-point ** :  -0.0536 0.2250 0.1250  plane waves:    4820
 k-point ** :  -0.0179 0.2250 0.1250  plane waves:    4820
 k-point ** :   0.0179 0.2750 0.1250  plane waves:    4823
 k-point ** :   0.0536 0.2750 0.1250  plane waves:    4811
 k-point ** :   0.0893 0.2750 0.1250  plane waves:    4814
 k-point ** :   0.1250 0.2750 0.1250  plane waves:    4810
 k-point ** :   0.1607 0.2750 0.1250  plane waves:    4806
 k-point ** :   0.1964 0.2750 0.1250  plane waves:    4803
 k-point ** :   0.2321 0.2750 0.1250  plane waves:    4788
 k-point ** :   0.2679 0.2750 0.1250  plane waves:    4783
 k-point ** :   0.3036 0.2750 0.1250  plane waves:    4775
 k-point ** :   0.3393 0.2750 0.1250  plane waves:    4769
 k-point ** :   0.3750 0.2750 0.1250  plane waves:    4765
 k-point ** :   0.4107 0.2750 0.1250  plane waves:    4763
 k-point ** :   0.4464 0.2750 0.1250  plane waves:    4756
 k-point ** :   0.4821 0.2750 0.1250  plane waves:    4766
 k-point ** :  -0.4821 0.2750 0.1250  plane waves:    4765
 k-point ** :  -0.4464 0.2750 0.1250  plane waves:    4760
 k-point ** :  -0.4107 0.2750 0.1250  plane waves:    4765
 k-point ** :  -0.3750 0.2750 0.1250  plane waves:    4764
 k-point ** :  -0.3393 0.2750 0.1250  plane waves:    4768
[...]
 k-point ** :   0.4821 0.4750 0.3750  plane waves:    4745
 k-point ** :  -0.4821 0.4750 0.3750  plane waves:    4746
 k-point ** :  -0.4464 0.4750 0.3750  plane waves:    4738
 k-point ** :  -0.4107 0.4750 0.3750  plane waves:    4744
 k-point ** :  -0.3750 0.4750 0.3750  plane waves:    4749
 k-point ** :  -0.3393 0.4750 0.3750  plane waves:    4748
 k-point ** :  -0.3036 0.4750 0.3750  plane waves:    4762
 k-point ** :  -0.2679 0.4750 0.3750  plane waves:    4779
 k-point ** :  -0.2321 0.4750 0.3750  plane waves:    4794
 k-point ** :  -0.1964 0.4750 0.3750  plane waves:    4793
 k-point ** :  -0.1607 0.4750 0.3750  plane waves:    4799
 k-point ** :  -0.1250 0.4750 0.3750  plane waves:    4800
 k-point ** :  -0.0893 0.4750 0.3750  plane waves:    4797
 k-point ** :  -0.0536 0.4750 0.3750  plane waves:    4784
 k-point ** :  -0.0179 0.4750 0.3750  plane waves:    4780

 maximum and minimum number of plane-waves per node :      4823     4734

 maximum number of plane-waves:      4823
 maximum index in each direction:
   IXMAX=    5   IYMAX=    6   IZMAX=   37
   IXMIN=   -5   IYMIN=   -7   IZMIN=  -37

 serial   3D FFT for wavefunctions
 parallel 3D FFT for charge:
    minimum data exchange during FFTs selected (reduces bandwidth)

 Broyden mixing: mesh for mixing (old mesh)
   NGX =  9   NGY = 13   NGZ = 75
  (NGX  = 40   NGY  = 56   NGZ  =300)
  gives a total of   8775 points

 initial charge density was supplied:
 charge density of overlapping atoms calculated
 number of electron      24.0000000 magnetization
 keeping initial charge density in first step

 Maximum index for non-local projection operator         3434
 Maximum index for augmentation-charges          941 (set IRDMAX)

 First call to EWALD:  gamma=   0.276
 Maximum number of real-space cells 6x 4x 1
 Maximum number of reciprocal cells 1x 2x 9

--------------------------------------- Iteration      1(   1)  ---------------------------------------

 eigenvalue-minimisations  : 35840
 total energy-change (2. order) : 0.9030848E+01  (-0.7733524E+03)
 number of electron      24.0000000 magnetization
 augmentation part       24.0000000 magnetization

 Free energy of the ion-electron system (eV)
  alpha Z        PSCENC =        -0.81565505
  Ewald energy   TEWEN  =      1603.64494638
  -Hartree energ DENC   =     -2022.68553459
  -exchange      EXHF   =         0.00000000
  -V(xc)+E(xc)   XCENC  =      -211.48643577
  PAW double counting   =       529.60125701     -273.96496605
  entropy T*S    EENTRO =         0.00116755
  eigenvalues    EBANDS =       -43.56916649
  atomic energy  EATOM  =       428.30523457
  Solvation  Ediel_sol  =         0.00000000
  free energy    TOTEN  =         9.03084756 eV

  energy without entropy =        9.02968002  energy(sigma->0) =        9.03045838

[...]

 eigenvalue-minimisations  : 55456
 total energy-change (2. order) :-0.3845929E+02  (-0.3815126E+02)
 number of electron      24.0000000 magnetization
 augmentation part       24.0000000 magnetization

[...]

 Broyden mixing:
  rms(total) = 0.40823E+00    rms(broyden)= 0.40822E+00
  rms(prec ) = 0.61392E+00
  weight for this iteration     100.00

[...]

 eigenvalues of (default mixing * dielectric matrix)
  average eigenvalue GAMMA=   1.1636
  1.1636

[...]

 eigenvalue-minimisations  : 41777
 total energy-change (2. order) : 0.4121133E-05  (-0.1716217E-04)
 number of electron      24.0000000 magnetization
 augmentation part       -0.3276924 magnetization

[...]

 Broyden mixing:
  rms(total) = 0.26907E-04    rms(broyden)= 0.26906E-04
  rms(prec ) = 0.33524E-04
  weight for this iteration     100.00

 eigenvalues of (default mixing * dielectric matrix)
  average eigenvalue GAMMA=   2.3632
  8.6789  4.8070  3.2558  2.5808  2.2203  1.9307  0.5242  1.3861  1.3861  1.1258
  0.9681  0.9681  0.8904

[...]

--------------------------------------- Iteration      1(  19)  ---------------------------------------

 eigenvalue-minimisations  : 30836
 total energy-change (2. order) :-0.7583359E-06  (-0.7774729E-08)
 number of electron      24.0000000 magnetization
 augmentation part       -0.3277670 magnetization

 Free energy of the ion-electron system (eV)
  alpha Z        PSCENC =        -0.81565505
  Ewald energy   TEWEN  =      1603.64494638
  -Hartree energ DENC   =     -2052.76686456
  -exchange      EXHF   =         0.00000000
  -V(xc)+E(xc)   XCENC  =      -210.51072561
  PAW double counting   =      1058.47962550     -802.93219913
  entropy T*S    EENTRO =        -0.00255102
  eigenvalues    EBANDS =       -51.93921608
  atomic energy  EATOM  =       428.30523457
  Solvation  Ediel_sol  =         0.00000000
  free energy    TOTEN  =       -28.53740499 eV

  energy without entropy =      -28.53485397  energy(sigma->0) =      -28.53655465

 average (electrostatic) potential at core
  the test charge radii are     1.0406
  (the norm of the test charge is              1.0000)
       1 -78.6454       2 -78.7002       3 -78.5910       4 -78.5840       5 -78.5840
       6 -78.5910       7 -78.7002       8 -78.6454

 E-fermi :   1.9895     XC(G=0):  -6.0148     alpha+bet : -7.4509

 k-point     1 :       0.0179    0.0250    0.1250
  band No.  band energies     occupation
      1      -8.8509      2.00000
      2      -8.0923      2.00000
      3      -6.8693      2.00000
      4      -5.2647      2.00000
      5      -3.3845      2.00000
      6      -1.3790      2.00000
      7      -0.7764      2.00000
      8      -0.0708      2.00000
      9       0.6168      2.00000
     10       0.8377      2.00000
     11       1.0826      2.00000
     12       1.6157      2.02382
     13       2.4580     -0.00455
     14       2.6458     -0.00004
     15       3.1030     -0.00000
     16       4.5059     -0.00000
     17       4.5337     -0.00000
     18       4.7697     -0.00000
     19       5.8835     -0.00000
     20       6.2399     -0.00000
     21       6.6508     -0.00000
     22       6.6954     -0.00000
     23       7.5122      0.00000
     24       7.9248      0.00000
     25       8.3139      0.00000
     26       8.3569      0.00000
     27       8.8942      0.00000
     28       9.0000      0.00000
     29       9.4237      0.00000
     30       9.9708      0.00000
     31      10.1656      0.00000
     32      10.5301      0.00000

[...]

 k-point   560 :      -0.0179    0.4750    0.3750
  band No.  band energies     occupation
      1      -6.8294      2.00000
      2      -6.3881      2.00000
      3      -6.0845      2.00000
      4      -5.6576      2.00000
      5      -4.8760      2.00000
      6      -4.4744      2.00000
      7      -3.2432      2.00000
      8      -2.8636      2.00000
      9      -1.4039      2.00000
     10      -1.0686      2.00000
     11       0.7669      2.00000
     12       1.0369      2.00000
     13       3.0055     -0.00000
     14       3.2472     -0.00000
     15       5.1183     -0.00000
     16       5.4032     -0.00000
     17       6.8983     -0.00000
     18       7.2711     -0.00000
     19       7.8256      0.00000
     20       8.2592      0.00000
     21       8.8641      0.00000
     22       9.2234      0.00000
     23       9.3176      0.00000
     24       9.6363      0.00000
     25       9.6956      0.00000
     26       9.9423      0.00000
     27      10.0571      0.00000
     28      10.0791      0.00000
     29      10.4404      0.00000
     30      10.6159      0.00000
     31      11.1312      0.00000
     32      11.1381      0.00000

 soft charge-density along one line, spin component           1
         0         1         2         3         4         5         6         7         8         9
 total charge-density along one line

------------------------ aborting loop because EDIFF is reached ----------------------------------------

  FORCE on cell =-STRESS in cart. coord.  units (eV):
  Direction    XX          YY          ZZ          XY          YZ          ZX
  Alpha Z    -0.81566    -0.81566    -0.81566
  Ewald    1993.27073  1979.13138 -2368.75777    -0.00000     0.00000    -0.00786
  Hartree  2052.21104  2049.86605 -2049.31637    -0.00000     0.00000     0.00052
  E(xc)     -67.16713   -67.18481   -67.31347    -0.00000    -0.00000     0.00063
  Local   -4238.92215 -4221.80340  4226.07429    -0.00000    -0.00000     0.00845
  n-local   153.94948   152.76613   151.07060     0.00000    -0.00001    -0.00714
  augment    -8.78775    -8.74694    -8.69563     0.00000     0.00000     0.00039
  Kinetic   113.34469   115.39333   117.81437    -0.00000     0.00011    -0.00301
  Fock        0.00000     0.00000     0.00000     0.00000     0.00000     0.00000
  Total      -2.91674    -1.39392     0.06039     0.00000    -0.00000    -0.00801
  in kB     -17.73167    -8.47404     0.36713     0.00000    -0.00000    -0.04868

 VOLUME and BASIS-vectors are now :
  energy-cutoff  :      400.00
  volume of cell :      263.55
      direct lattice vectors                 reciprocal lattice vectors
     2.855954575  0.000000000  0.000000000     0.350145625  0.000000000 -0.000153252
    -0.000000000  4.038929693  0.000000000     0.000000000  0.247590346  0.000000000
     0.010000000  0.000000000 22.847636598    -0.000000000 -0.000000000  0.043768203

  length of vectors
     2.855954575  4.038929693 22.847638787     0.350145659  0.247590346  0.043768203

 FORCES acting on ions
    electron-ion (+dipol)            ewald-force                    non-local-force                 convergence-correction
   0.124E-02 -.513E-13 0.179E+03   -.992E-03 0.667E-14 -.178E+03   -.179E-03 0.000E+00 -.636E+00   0.420E-09 -.781E-16 0.573E-03
   -.128E-02 -.121E-13 0.236E+03   0.148E-02 0.103E-13 -.234E+03   0.592E-03 0.000E+00 -.135E+01   -.118E-08 0.238E-16 0.433E-03
   0.449E-03 -.440E-13 0.353E+02   -.297E-05 0.103E-14 -.353E+02   -.460E-03 0.000E+00 -.851E-01   0.332E-08 -.408E-15 0.867E-04
   -.677E-04 -.369E-13 0.106E+03   0.350E-04 0.488E-14 -.106E+03   0.164E-04 0.000E+00 -.126E-01   0.755E-10 0.267E-15 0.403E-03
   0.677E-04 -.576E-14 -.106E+03   -.350E-04 -.545E-14 0.106E+03   -.164E-04 0.000E+00 0.126E-01   -.755E-10 -.312E-15 -.403E-03
   -.449E-03 -.427E-13 -.353E+02   0.297E-05 -.160E-14 0.353E+02   0.460E-03 0.000E+00 0.851E-01   -.332E-08 0.423E-15 -.867E-04
   0.128E-02 0.103E-13 -.236E+03   -.148E-02 -.109E-13 0.234E+03   -.592E-03 0.000E+00 0.135E+01   0.118E-08 -.820E-16 -.433E-03
   -.124E-02 0.820E-14 -.179E+03   0.992E-03 -.724E-14 0.178E+03   0.179E-03 0.000E+00 0.636E+00   -.420E-09 0.169E-15 -.573E-03
   -.609E-13 -.174E-12 0.621E-12   -.411E-14 -.228E-14 -.853E-13   0.000E+00 0.000E+00 0.000E+00   -.551E-16 0.276E-17 -.717E-12

 POSITION                                       TOTAL-FORCE (eV/Angst)
      2.14290      0.00000      2.14197         0.000071      0.000000     -0.205123
      0.71430      2.01946      0.71399         0.000790      0.000000      0.162401
      2.14415      0.00000      4.99792        -0.000014      0.000000     -0.052218
      0.71555      2.01946      3.56994        -0.000016      0.000000     -0.036782
      2.14540      0.00000      7.85388         0.000016      0.000000      0.036782
      0.71680      2.01946      6.42590         0.000014      0.000000      0.052218
      2.14665      0.00000     10.70983        -0.000790      0.000000     -0.162401
      0.71805      2.01946      9.28185        -0.000071      0.000000      0.205123
    total drift:                               -0.000000     -0.000000     -0.000000

  FREE ENERGIE OF THE ION-ELECTRON SYSTEM (eV)
  free  energy   TOTEN  =       -28.53740499 eV

  energy  without entropy=      -28.53485397  energy(sigma->0) =      -28.53655465