 vasp.6.4.2 20Jul23 (build Apr 22 2024 22:35:45) complex
 executed on             LinuxGNU date 2024.05.26  15:44:30

 INCAR:
   ALGO = Fast
   EDIFF = 1e-06
   ENCUT = 400
   IBRION = 2
   ISIF = 4
   ISMEAR = 1
   KSPACING = 0.08
   LCHARG = False
   LREAL = Auto
   LWAVE = False
   NELM = 60
   NELMIN = 4
   NSW = 100
   PREC = Accurate
   SIGMA = 0.2
   SYSTEM = Al fcc relaxation

 POTCAR:    PAW_PBE Al 04Jan2001
 POTCAR:    PAW_PBE Al 04Jan2001
   VRHFIN =Al: s2p1

   TITEL  = PAW_PBE Al 04Jan2001
   POMASS =   26.981; ZVAL   =    3.000    mass and valenz
   ENMAX  =  240.300; ENMIN  =  180.225 eV

 Optimization of the real space projectors (new method)

 maximal supplied QI-value         = 19.84
 optimisation between [QCUT,QGAM] = [ 10.12, 20.44] = [ 28.68,116.96] Ry
 Optimized for a Real-space Cutoff    1.38 Angstroem

   l    n(q)    QCUT    max X(q) W(low)/X(q) W(high)/X(q)  e(spline)
   0      8    10.119   176.870    0.39E-04    0.93E-04    0.54E-07
   0      8    10.119   105.762    0.37E-04    0.91E-04    0.53E-07
   1      8    10.119    55.370    0.18E-03    0.13E-03    0.19E-06
   1      8    10.119    20.208    0.17E-03    0.12E-03    0.18E-06
  PAW_PBE Al 04Jan2001                  :

 POSCAR: Al4
  positions in direct lattice
  velocities in cartesian coordinates
 exchange correlation table for  LEXCH =        8
   RHO(1)=    0.500       N(1)  =     2000
   RHO(2)=  100.500       N(2)  =     4000

 ion  position               nearest neighbor table
   1  0.000  0.000  0.000-   2 2.71   3 2.71   4 2.71   2 2.71   3 2.71   2 2.71   4 2.71   2 2.71
                             3 2.71   4 2.71   3 2.71   4 2.71
   2  0.000  0.500  0.500-   1 2.71   3 2.71   4 2.71   1 2.71   4 2.71   1 2.71   3 2.71   1 2.71
                             3 2.71   4 2.71   4 2.71   3 2.71
   3  0.500  0.000  0.500-   1 2.71   2 2.71   4 2.71   1 2.71   4 2.71   2 2.71   4 2.71   4 2.71
                             1 2.71   2 2.71   1 2.71   2 2.71
   4  0.500  0.500  0.000-   1 2.71   2 2.71   3 2.71   2 2.71   3 2.71   1 2.71   3 2.71   3 2.71
                             1 2.71   2 2.71   2 2.71   1 2.71

  LATTYP: Found a simple cubic cell.
 ALAT       =     3.8259498106

  Lattice vectors:

 A1 = (   3.8259498106,   0.0000000000,   0.0000000000)
 A2 = (  -0.0000000000,   3.8259498106,   0.0000000000)
 A3 = (   0.0000000000,   0.0000000000,   3.8259498106)

Analysis of symmetry for initial positions (statically):
 Subroutine PRICEL returns following result:

  LATTYP: Found a face centered cubic cell.
 ALAT       =     3.8259498106

[...]

   4 primitive cells build up your supercell.

 Routine SETGRP: Setting up the symmetry group for a
 simple cubic supercell.

 Subroutine GETGRP returns: Found 48 space group operations
 (whereof 48 operations were pure point group operations)
 out of a pool of 48 trial point group operations.

The static configuration has the point symmetry O_h .

Analysis of symmetry for dynamics (positions and initial velocities):
 Subroutine PRICEL returns following result:

  LATTYP: Found a face centered cubic cell.
 ALAT       =     3.8259498106

  Lattice vectors:

 A1 = (   1.9129749053,  -1.9129749053,   0.0000000000)
 A2 = (   1.9129749053,   0.0000000000,   1.9129749053)
 A3 = (   0.0000000000,  -1.9129749053,   1.9129749053)

   4 primitive cells build up your supercell.

 Routine SETGRP: Setting up the symmetry group for a
 simple cubic supercell.

 Subroutine GETGRP returns: Found 48 space group operations
 (whereof 48 operations were pure point group operations)
 out of a pool of 48 trial point group operations.

The dynamic configuration has the point symmetry O_h .

 Subroutine INISYM returns: Found 48 space group operations
 (whereof 48 operations are pure point group operations),
 and found     4 'primitive' translations

                                     Primitive cell

  volume of cell :      14.0010

  direct lattice vectors                    reciprocal lattice vectors
     1.912974905 -1.912974905  0.000000000     0.261373005 -0.261373005 -0.261373005
     1.912974905  0.000000000  1.912974905     0.261373005  0.261373005  0.261373005
     0.000000000 -1.912974905  1.912974905    -0.261373005 -0.261373005  0.261373005

  length of vectors
     2.705355056  2.705355056  2.705355056     0.452711325  0.452711325  0.452711325

  position of ions in fractional coordinates (direct lattice)
     0.000000000  0.000000000  0.000000000

  ion indices of the primitive-cell ions
   primitive index   ion index
                 1           1

 KPOINTS: Automatic kpoint scheme

Automatic generation of k-mesh.
 Grid dimensions read from file:
 generate k-points for:   21   21   21

 Generating k-lattice:

  Cartesian coordinates                     Fractional coordinates (reciprocal lattice)
     0.012446334  0.000000000 -0.000000000     0.047619048  0.000000000  0.000000000
     0.000000000  0.012446334  0.000000000     0.000000000  0.047619048  0.000000000
    -0.000000000 -0.000000000  0.012446334    -0.000000000 -0.000000000  0.047619048

  Length of vectors
     0.012446334  0.012446334  0.012446334

  Shift w.r.t. Gamma in fractional coordinates (k-lattice)
     0.000000000  0.000000000  0.000000000

 Subroutine IBZKPT returns following result:

 Found    286 irreducible k-points:

 Following reciprocal coordinates:
            Coordinates               Weight
  0.000000  0.000000  0.000000      1.000000
  0.047619  0.000000  0.000000      6.000000
  0.095238  0.000000  0.000000      6.000000
  0.142857  0.000000  0.000000      6.000000
  0.190476  0.000000  0.000000      6.000000
  0.238095  0.000000  0.000000      6.000000
  0.285714  0.000000  0.000000      6.000000
  0.333333  0.000000  0.000000      6.000000
  0.380952  0.000000  0.000000      6.000000
  0.428571  0.000000  0.000000      6.000000
  0.476190  0.000000  0.000000      6.000000
  0.047619  0.047619  0.000000     12.000000
  0.095238  0.047619  0.000000     24.000000
  0.142857  0.047619  0.000000     24.000000
  0.190476  0.047619  0.000000     24.000000
  0.238095  0.047619  0.000000     24.000000
  0.285714  0.047619  0.000000     24.000000
  0.333333  0.047619  0.000000     24.000000
  0.380952  0.047619  0.000000     24.000000
  0.428571  0.047619  0.000000     24.000000
  0.476190  0.047619  0.000000     24.000000
  0.095238  0.095238  0.000000     12.000000
  0.142857  0.095238  0.000000     24.000000
  0.190476  0.095238  0.000000     24.000000
  0.238095  0.095238  0.000000     24.000000
  0.285714  0.095238  0.000000     24.000000
  0.333333  0.095238  0.000000     24.000000
  0.380952  0.095238  0.000000     24.000000
  0.428571  0.095238  0.000000     24.000000
  0.476190  0.095238  0.000000     24.000000
  0.142857  0.142857  0.000000     12.000000
  0.190476  0.142857  0.000000     24.000000
  0.238095  0.142857  0.000000     24.000000
  0.285714  0.142857  0.000000     24.000000
  0.333333  0.142857  0.000000     24.000000
  0.380952  0.142857  0.000000     24.000000
  0.428571  0.142857  0.000000     24.000000
  0.476190  0.142857  0.000000     24.000000
  0.190476  0.190476  0.000000     12.000000
  0.238095  0.190476  0.000000     24.000000
  0.285714  0.190476  0.000000     24.000000
  0.333333  0.190476  0.000000     24.000000
  0.380952  0.190476  0.000000     24.000000
  0.428571  0.190476  0.000000     24.000000
  0.476190  0.190476  0.000000     24.000000
  0.238095  0.238095  0.000000     12.000000
  0.285714  0.238095  0.000000     24.000000
  0.333333  0.238095  0.000000     24.000000
  0.380952  0.238095  0.000000     24.000000
  0.428571  0.238095  0.000000     24.000000
  0.476190  0.238095  0.000000     24.000000
  0.285714  0.285714  0.000000     12.000000
  0.333333  0.285714  0.000000     24.000000
  0.380952  0.285714  0.000000     24.000000
  0.428571  0.285714  0.000000     24.000000
  0.476190  0.285714  0.000000     24.000000
  0.333333  0.333333  0.000000     12.000000
  0.380952  0.333333  0.000000     24.000000
  0.428571  0.333333  0.000000     24.000000
  0.476190  0.333333  0.000000     24.000000
[...]
  0.428571  0.380952  0.333333     48.000000
  0.476190  0.380952  0.333333     48.000000
  0.428571  0.428571  0.333333     24.000000
  0.476190  0.428571  0.333333     48.000000
  0.476190  0.476190  0.333333     24.000000
  0.380952  0.380952  0.380952      8.000000
  0.428571  0.380952  0.380952     24.000000
  0.476190  0.380952  0.380952     24.000000
  0.428571  0.428571  0.380952     24.000000
  0.476190  0.428571  0.380952     48.000000
  0.476190  0.476190  0.380952     24.000000
  0.428571  0.428571  0.428571      8.000000
  0.476190  0.428571  0.428571     24.000000
  0.476190  0.476190  0.428571     24.000000
  0.476190  0.476190  0.476190      8.000000

 Following cartesian coordinates:
            Coordinates               Weight
  0.000000  0.000000  0.000000      1.000000
  0.011790  0.000000  0.000000      6.000000
  0.023580  0.000000  0.000000      6.000000
  0.035370  0.000000  0.000000      6.000000
  0.047160  0.000000  0.000000      6.000000
  0.058950  0.000000  0.000000      6.000000
  0.070740  0.000000  0.000000      6.000000
  0.082530  0.000000  0.000000      6.000000
  0.094320  0.000000  0.000000      6.000000
  0.106110  0.000000  0.000000      6.000000
  0.117900  0.000000  0.000000      6.000000
  0.011790  0.011790  0.000000     12.000000
  0.023580  0.011790  0.000000     24.000000
  0.035370  0.011790  0.000000     24.000000
  0.047160  0.011790  0.000000     24.000000
  0.058950  0.011790  0.000000     24.000000
  0.070740  0.011790  0.000000     24.000000
  0.082530  0.011790  0.000000     24.000000
  0.094320  0.011790  0.000000     24.000000
  0.106110  0.011790  0.000000     24.000000
  0.117900  0.011790  0.000000     24.000000
  0.023580  0.023580  0.000000     12.000000
  0.035370  0.023580  0.000000     24.000000
  0.047160  0.023580  0.000000     24.000000
  0.058950  0.023580  0.000000     24.000000
  0.070740  0.023580  0.000000     24.000000
  0.082530  0.023580  0.000000     24.000000
  0.094320  0.023580  0.000000     24.000000
  0.106110  0.023580  0.000000     24.000000
  0.117900  0.023580  0.000000     24.000000
  0.035370  0.035370  0.000000     12.000000
  0.047160  0.035370  0.000000     24.000000
  0.058950  0.035370  0.000000     24.000000
  0.070740  0.035370  0.000000     24.000000
  0.082530  0.035370  0.000000     24.000000
  0.094320  0.035370  0.000000     24.000000
  0.106110  0.035370  0.000000     24.000000
  0.117900  0.035370  0.000000     24.000000
  0.047160  0.047160  0.000000     12.000000
  0.058950  0.047160  0.000000     24.000000
  0.070740  0.047160  0.000000     24.000000
  0.082530  0.047160  0.000000     24.000000
  0.094320  0.047160  0.000000     24.000000
  0.106110  0.047160  0.000000     24.000000
  0.117900  0.047160  0.000000     24.000000
  0.058950  0.058950  0.000000     12.000000
  0.070740  0.058950  0.000000     24.000000
  0.082530  0.058950  0.000000     24.000000
  0.094320  0.058950  0.000000     24.000000
  0.106110  0.058950  0.000000     24.000000
  0.117900  0.058950  0.000000     24.000000
  0.070740  0.070740  0.000000     12.000000
[...]
   0.14285714  0.04761905  0.00000000       0.003
   0.19047619  0.04761905  0.00000000       0.003
   0.23809524  0.04761905  0.00000000       0.003
   0.28571429  0.04761905  0.00000000       0.003
   0.33333333  0.04761905  0.00000000       0.003
   0.38095238  0.04761905  0.00000000       0.003
   0.42857143  0.04761905  0.00000000       0.003
   0.47619048  0.04761905  0.00000000       0.003
   0.09523810  0.09523810  0.00000000       0.001
   0.14285714  0.09523810  0.00000000       0.003
   0.19047619  0.09523810  0.00000000       0.003
   0.23809524  0.09523810  0.00000000       0.003
   0.28571429  0.09523810  0.00000000       0.003
   0.33333333  0.09523810  0.00000000       0.003
   0.38095238  0.09523810  0.00000000       0.003
   0.42857143  0.09523810  0.00000000       0.003
   0.47619048  0.09523810  0.00000000       0.003
   0.14285714  0.14285714  0.00000000       0.001
   0.19047619  0.14285714  0.00000000       0.003
   0.23809524  0.14285714  0.00000000       0.003
   0.28571429  0.14285714  0.00000000       0.003
   0.33333333  0.14285714  0.00000000       0.003
   0.38095238  0.14285714  0.00000000       0.003
   0.42857143  0.14285714  0.00000000       0.003
   0.47619048  0.14285714  0.00000000       0.003
   0.19047619  0.19047619  0.00000000       0.001
   0.23809524  0.19047619  0.00000000       0.003
   0.28571429  0.19047619  0.00000000       0.003
   0.33333333  0.19047619  0.00000000       0.003
   0.38095238  0.19047619  0.00000000       0.003
   0.42857143  0.19047619  0.00000000       0.003
   0.47619048  0.19047619  0.00000000       0.003
   0.23809524  0.23809524  0.00000000       0.001
   0.28571429  0.23809524  0.00000000       0.003
   0.33333333  0.23809524  0.00000000       0.003
   0.38095238  0.23809524  0.00000000       0.003
   0.42857143  0.23809524  0.00000000       0.003
   0.47619048  0.23809524  0.00000000       0.003
   0.28571429  0.28571429  0.00000000       0.001
   0.33333333  0.28571429  0.00000000       0.003
   0.38095238  0.28571429  0.00000000       0.003
   0.42857143  0.28571429  0.00000000       0.003
   0.47619048  0.28571429  0.00000000       0.003
   0.33333333  0.33333333  0.00000000       0.001
   0.38095238  0.33333333  0.00000000       0.003
   0.42857143  0.33333333  0.00000000       0.003
   0.47619048  0.33333333  0.00000000       0.003
[...]
   0.42857143  0.38095238  0.33333333       0.005
   0.47619048  0.38095238  0.33333333       0.005
   0.42857143  0.42857143  0.33333333       0.003
   0.47619048  0.42857143  0.33333333       0.005
   0.47619048  0.47619048  0.33333333       0.003
   0.38095238  0.38095238  0.38095238       0.001
   0.42857143  0.38095238  0.38095238       0.003
   0.47619048  0.38095238  0.38095238       0.003
   0.42857143  0.42857143  0.38095238       0.003
   0.47619048  0.42857143  0.38095238       0.005
   0.47619048  0.47619048  0.38095238       0.003
   0.42857143  0.42857143  0.42857143       0.001
   0.47619048  0.42857143  0.42857143       0.003
   0.47619048  0.47619048  0.42857143       0.003
   0.47619048  0.47619048  0.47619048       0.001

 position of ions in fractional coordinates (direct lattice)
   0.00000000  0.00000000  0.00000000
   0.00000000  0.50000000  0.50000000
   0.50000000  0.00000000  0.50000000
   0.50000000  0.50000000  0.00000000

 position of ions in cartesian coordinates  (Angst):
   0.00000000  0.00000000  0.00000000
  -0.00000000  1.91297491  1.91297491
   1.91297491  0.00000000  1.91297491
   1.91297491  1.91297491  0.00000000

 k-point   1 :   0.0000 0.0000 0.0000  plane waves:    1021
 k-point   2 :   0.0476 0.0000 0.0000  plane waves:    1021
 k-point   3 :   0.0952 0.0000 0.0000  plane waves:    1013
 k-point   4 :   0.1429 0.0000 0.0000  plane waves:    1013
 k-point   5 :   0.1905 0.0000 0.0000  plane waves:    1009
 k-point   6 :   0.2381 0.0000 0.0000  plane waves:    1005
 k-point   7 :   0.2857 0.0000 0.0000  plane waves:    1016
 k-point   8 :   0.3333 0.0000 0.0000  plane waves:    1028
 k-point   9 :   0.3810 0.0000 0.0000  plane waves:    1016
 k-point  10 :   0.4286 0.0000 0.0000  plane waves:    1020
 k-point  11 :   0.4762 0.0000 0.0000  plane waves:    1020
 k-point  12 :   0.0476 0.0476 0.0000  plane waves:    1021
 k-point  13 :   0.0952 0.0476 0.0000  plane waves:    1014
 k-point  14 :   0.1429 0.0476 0.0000  plane waves:    1008
 k-point  15 :   0.1905 0.0476 0.0000  plane waves:    1005
 k-point  16 :   0.2381 0.0476 0.0000  plane waves:    1012
 k-point  17 :   0.2857 0.0476 0.0000  plane waves:    1014
 k-point  18 :   0.3333 0.0476 0.0000  plane waves:    1021
 k-point  19 :   0.3810 0.0476 0.0000  plane waves:    1017
 k-point  20 :   0.4286 0.0476 0.0000  plane waves:    1019
 k-point  21 :   0.4762 0.0476 0.0000  plane waves:    1025
 k-point  22 :   0.0952 0.0952 0.0000  plane waves:    1007
 k-point  23 :   0.1429 0.0952 0.0000  plane waves:    1008
 k-point  24 :   0.1905 0.0952 0.0000  plane waves:    1010
 k-point  25 :   0.2381 0.0952 0.0000  plane waves:    1020
 k-point  26 :   0.2857 0.0952 0.0000  plane waves:    1021
 k-point  27 :   0.3333 0.0952 0.0000  plane waves:    1017
 k-point  28 :   0.3810 0.0952 0.0000  plane waves:    1023
 k-point  29 :   0.4286 0.0952 0.0000  plane waves:    1021
 k-point  30 :   0.4762 0.0952 0.0000  plane waves:    1015
 k-point  31 :   0.1429 0.1429 0.0000  plane waves:    1015
 k-point  32 :   0.1905 0.1429 0.0000  plane waves:    1013
 k-point  33 :   0.2381 0.1429 0.0000  plane waves:    1020
 k-point  34 :   0.2857 0.1429 0.0000  plane waves:    1018
 k-point  35 :   0.3333 0.1429 0.0000  plane waves:    1020
 k-point  36 :   0.3810 0.1429 0.0000  plane waves:    1023
 k-point  37 :   0.4286 0.1429 0.0000  plane waves:    1018
 k-point  38 :   0.4762 0.1429 0.0000  plane waves:    1018
 k-point  39 :   0.1905 0.1905 0.0000  plane waves:    1015
 k-point  40 :   0.2381 0.1905 0.0000  plane waves:    1015
 k-point  41 :   0.2857 0.1905 0.0000  plane waves:    1016
 k-point  42 :   0.3333 0.1905 0.0000  plane waves:    1016
 k-point  43 :   0.3810 0.1905 0.0000  plane waves:    1020
 k-point  44 :   0.4286 0.1905 0.0000  plane waves:    1020
 k-point  45 :   0.4762 0.1905 0.0000  plane waves:    1014
 k-point  46 :   0.2381 0.2381 0.0000  plane waves:    1011
 k-point  47 :   0.2857 0.2381 0.0000  plane waves:    1017
 k-point  48 :   0.3333 0.2381 0.0000  plane waves:    1014
 k-point  49 :   0.3810 0.2381 0.0000  plane waves:    1020
 k-point  50 :   0.4286 0.2381 0.0000  plane waves:    1018
 k-point  51 :   0.4762 0.2381 0.0000  plane waves:    1014
 k-point  52 :   0.2857 0.2857 0.0000  plane waves:    1023
 k-point  53 :   0.3333 0.2857 0.0000  plane waves:    1017
 k-point  54 :   0.3810 0.2857 0.0000  plane waves:    1019
 k-point  55 :   0.4286 0.2857 0.0000  plane waves:    1016
 k-point  56 :   0.4762 0.2857 0.0000  plane waves:    1019
 k-point  57 :   0.3333 0.3333 0.0000  plane waves:    1029
 k-point  58 :   0.3810 0.3333 0.0000  plane waves:    1026
 k-point  59 :   0.4286 0.3333 0.0000  plane waves:    1029
 k-point  60 :   0.4762 0.3333 0.0000  plane waves:    1025
[...]
 k-point 272 :   0.4286 0.3810 0.3333  plane waves:    1017
 k-point 273 :   0.4762 0.3810 0.3333  plane waves:    1016
 k-point 274 :   0.4286 0.4286 0.3333  plane waves:    1019
 k-point 275 :   0.4762 0.4286 0.3333  plane waves:    1021
 k-point 276 :   0.4762 0.4762 0.3333  plane waves:    1018
 k-point 277 :   0.3810 0.3810 0.3810  plane waves:    1021
 k-point 278 :   0.4286 0.3810 0.3810  plane waves:    1021
 k-point 279 :   0.4762 0.3810 0.3810  plane waves:    1024
 k-point 280 :   0.4286 0.4286 0.3810  plane waves:    1020
 k-point 281 :   0.4762 0.4286 0.3810  plane waves:    1021
 k-point 282 :   0.4762 0.4762 0.3810  plane waves:    1018
 k-point 283 :   0.4286 0.4286 0.4286  plane waves:    1016
 k-point 284 :   0.4762 0.4286 0.4286  plane waves:    1024
 k-point 285 :   0.4762 0.4762 0.4286  plane waves:    1028
 k-point 286 :   0.4762 0.4762 0.4762  plane waves:    1034

 maximum and minimum number of plane-waves per node :      1034     1005

 maximum number of plane-waves:      1034
 maximum index in each direction:
   IXMAX=    6   IYMAX=    6   IZMAX=    6
   IXMIN=   -6   IYMIN=   -6   IZMIN=   -6

 serial   3D FFT for wavefunctions
 parallel 3D FFT for charge:
    minimum data exchange during FFTs selected (reduces bandwidth)

 Broyden mixing: mesh for mixing (old mesh)
   NGX = 13   NGY = 13   NGZ = 13
  (NGX  = 56   NGY  = 56   NGZ  = 56)
  gives a total of   2197 points

 initial charge density was supplied:
 charge density of overlapping atoms calculated
 number of electron      12.0000000 magnetization
 keeping initial charge density in first step

 Maximum index for non-local projection operator         2122
 Maximum index for augmentation-charges          943 (set IRDMAX)

 First call to EWALD:  gamma=   0.463
 Maximum number of real-space cells 3x 3x 3
 Maximum number of reciprocal cells 3x 3x 3

--------------------------------------- Ionic step        1  -------------------------------------------

--------------------------------------- Iteration      1(   1)  ---------------------------------------

 eigenvalue-minimisations  :  8092
 total energy-change (2. order) :-0.1156300E+01  (-0.4021186E+03)
 number of electron      12.0000000 magnetization
 augmentation part       12.0000000 magnetization

 Free energy of the ion-electron system (eV)
  alpha Z        PSCENC =        -0.95959417
  Ewald energy   TEWEN  =      -310.61011160
  -Hartree energ DENC   =        -0.26013284
  -exchange      EXHF   =         0.00000000
  -V(xc)+E(xc)   XCENC  =      -103.74300292
  PAW double counting   =       264.80062850     -136.98248303
  entropy T*S    EENTRO =         0.00086959
  eigenvalues    EBANDS =        72.44490906
  atomic energy  EATOM  =       214.15261729
  Solvation  Ediel_sol  =         0.00000000
  free energy    TOTEN  =        -1.15630012 eV

  energy without entropy =       -1.15716971  energy(sigma->0) =       -1.15658998

[...]

 Broyden mixing:
  rms(total) = 0.32587E+00    rms(broyden)= 0.32587E+00
  rms(prec ) = 0.52544E+00
  weight for this iteration     100.00

[...]

 eigenvalue-minimisations  :  8008
 total energy-change (2. order) : 0.6317216E-01  (-0.3025385E-03)
 number of electron      12.0000000 magnetization
 augmentation part       -0.1385022 magnetization

[...]

 eigenvalues of (default mixing * dielectric matrix)
  average eigenvalue GAMMA=   2.4016
  2.4016

[...]

 eigenvalue-minimisations  :  8008
 total energy-change (2. order) : 0.2174215E-05  (-0.2193638E-05)
 number of electron      12.0000000 magnetization
 augmentation part       -0.1425848 magnetization

 Broyden mixing:
  rms(total) = 0.83978E-02    rms(broyden)= 0.83978E-02
  rms(prec ) = 0.84444E-02
  weight for this iteration     100.00

 eigenvalues of (default mixing * dielectric matrix)
  average eigenvalue GAMMA=   2.0443
  2.9303  2.6621  2.6621  0.9836  0.9836

[...]

--------------------------------------- Iteration      1(  11)  ---------------------------------------

 eigenvalue-minimisations  :  7722
 total energy-change (2. order) :-0.5053373E-06  (-0.3342113E-06)
 number of electron      12.0000000 magnetization
 augmentation part       -0.1425848 magnetization

 Free energy of the ion-electron system (eV)
  alpha Z        PSCENC =        -0.95959417
  Ewald energy   TEWEN  =      -310.61011160
  -Hartree energ DENC   =        -0.58772193
  -exchange      EXHF   =         0.00000000
  -V(xc)+E(xc)   XCENC  =      -103.15845292
  PAW double counting   =       767.46545012     -639.83294947
  entropy T*S    EENTRO =        -0.00023087
  eigenvalues    EBANDS =        59.03723678
  atomic energy  EATOM  =       214.15261729
  Solvation  Ediel_sol  =         0.00000000
  free energy    TOTEN  =       -14.49375678 eV

  energy without entropy =      -14.49352591  energy(sigma->0) =      -14.49367982

 average (electrostatic) potential at core
  the test charge radii are     1.0406
  (the norm of the test charge is              1.0000)
       1 -70.5667       2 -70.5667       3 -70.5667       4 -70.5667

 E-fermi :   9.8279     XC(G=0): -10.8061     alpha+bet :-17.5316

 Fermi energy:         9.8279015918

 k-point     1 :       0.0000    0.0000    0.0000
  band No.  band energies     occupation
      1      -2.4937      2.00000
      2       6.5050      2.00000
      3       6.5050      2.00000
      4       6.5050      2.00000
      5       8.1441      2.00000
      6       8.1441      2.00000
      7       8.1441      2.00000
      8      15.1132     -0.00000
      9      15.1132     -0.00000
     10      15.1132     -0.00000
     11      16.2524      0.00000
     12      16.2524      0.00000
     13      16.2524      0.00000
     14      16.2524      0.00000

[...]

 k-point   286 :       0.4762    0.4762    0.4762
  band No.  band energies     occupation
      1       4.1409      2.00000
      2       4.5018      2.00000
      3       4.5018      2.00000
      4       4.5018      2.00000
      5       5.2970      2.00000
      6       5.2970      2.00000
      7       5.2970      2.00000
      8       5.6553      2.00000
      9      21.7327      0.00000
     10      21.7342      0.00000
     11      21.7390      0.00000
     12      21.8120      0.00000
     13      21.8149      0.00000
     14      21.9513      0.00000

 soft charge-density along one line, spin component           1
         0         1         2         3         4         5         6         7         8         9
 total charge-density along one line

------------------------ aborting loop because EDIFF is reached ----------------------------------------

  FORCE on cell =-STRESS in cart. coord.  units (eV):
  Direction    XX          YY          ZZ          XY          YZ          ZX
  Alpha Z    -0.95959    -0.95959    -0.95959
  Ewald    -103.53675  -103.53675  -103.53675    -0.00000     0.00000     0.00000
  Hartree     0.19586     0.19586     0.19586    -0.00000    -0.00000    -0.00000
  E(xc)     -36.21192   -36.21192   -36.21192     0.00000    -0.00000    -0.00000
  Local       3.95282     3.95282     3.95282    -0.00000     0.00000     0.00000
  n-local    78.00856    79.06888    82.22289     0.79923     1.77944     0.77397
  augment    -3.78862    -3.78862    -3.78862     0.00000     0.00000     0.00000
  Kinetic    63.88571    66.38532    70.66443     1.66241    -9.04866    -1.67988
  Fock        0.00000     0.00000     0.00000     0.00000     0.00000     0.00000
  Total       6.39706     6.39706     6.39706    -0.00000     0.00000     0.00000
  in kB     183.00944   183.00944   183.00944    -0.00000     0.00000     0.00000

 VOLUME and BASIS-vectors are now :
  energy-cutoff  :      400.00
  volume of cell :       56.00
      direct lattice vectors                 reciprocal lattice vectors
     3.825949811  0.000000000  0.000000000     0.261373005  0.000000000 -0.000000000
    -0.000000000  3.825949811  0.000000000     0.000000000  0.261373005  0.000000000
     0.000000000  0.000000000  3.825949811    -0.000000000 -0.000000000  0.261373005

  length of vectors
     3.825949811  3.825949811  3.825949811     0.261373005  0.261373005  0.261373005

 FORCES acting on ions
    electron-ion (+dipol)            ewald-force                    non-local-force                 convergence-correction
   0.192E-14 -.207E-14 -.125E-14   -.127E-14 -.895E-15 -.211E-16   -.846E-25 0.228E-24 -.307E-25   -.199E-15 0.257E-16 0.640E-16
   0.254E-14 -.545E-14 -.473E-14   -.122E-14 -.183E-17 0.383E-15   -.329E-25 0.101E-24 0.205E-25   -.173E-15 -.457E-17 -.316E-16
   -.323E-14 -.191E-14 -.726E-13   0.118E-14 -.102E-15 0.391E-15   0.228E-25 -.908E-25 0.327E-26   0.233E-15 0.182E-16 -.346E-16
   -.299E-14 -.222E-13 0.104E-13   0.123E-14 0.791E-15 -.701E-15   0.425E-26 0.239E-25 0.874E-25   0.212E-15 0.719E-17 0.635E-16
   -.175E-14 -.316E-13 -.682E-13   -.843E-16 -.208E-15 0.516E-16   -.905E-25 0.262E-24 0.804E-25   0.718E-16 0.466E-16 0.614E-16

 POSITION                                       TOTAL-FORCE (eV/Angst)
      0.00000      0.00000      0.00000         0.000000      0.000000      0.000000
     -0.00000      1.91297      1.91297        -0.000000      0.000000     -0.000000
      1.91297      0.00000      1.91297        -0.000000     -0.000000      0.000000
      1.91297      1.91297      0.00000        -0.000000      0.000000     -0.000000
    total drift:                               -0.000000     -0.000000     -0.000000

  FREE ENERGIE OF THE ION-ELECTRON SYSTEM (eV)
  free  energy   TOTEN  =       -14.49375678 eV

  energy  without entropy=      -14.49352591  energy(sigma->0) =      -14.49367982

 reached required accuracy - stopping structural energy minimisation