 vasp.5.4.4.18Apr17-6-g9f103f2a35 (build Nov 07 2022 11:18:25) complex

 executed on             LinuxIFC date 2024.05.28  09:46:38

 INCAR:
 POTCAR:    PAW_PBE Al 04Jan2001

   TITEL  = PAW_PBE Al 04Jan2001
   POMASS =   26.981; ZVAL   =    3.000    mass and valenz
   ENMAX  =  240.300; ENMIN  =  180.225 eV

 Optimization of the real space projectors (new method)

 maximal supplied QI-value         = 19.84
 optimisation between [QCUT,QGAM] = [ 10.12, 20.44] = [ 28.68,116.96] Ry
 Optimized for a Real-space Cutoff    1.38 Angstroem

   l    n(q)    QCUT    max X(q) W(low)/X(q) W(high)/X(q)  e(spline)
   0      8    10.119   176.870    0.39E-04    0.93E-04    0.54E-07
   0      8    10.119   105.762    0.37E-04    0.91E-04    0.53E-07
   1      8    10.119    55.370    0.18E-03    0.13E-03    0.19E-06
   1      8    10.119    20.208    0.17E-03    0.12E-03    0.18E-06
  PAW_PBE Al 04Jan2001                  :

 POSCAR: Al16
  positions in direct lattice
 exchange correlation table for  LEXCH =        8
   RHO(1)=    0.500       N(1)  =     2000
   RHO(2)=  100.500       N(2)  =     4000

 ion  position               nearest neighbor table
   1  0.875  0.097  0.097-   4 2.86   7 2.86   3 2.86   8 2.86   5 2.86   8 2.86   3 2.86   7 2.86
                             4 2.86
   2  0.875  0.542  0.042-   8 2.86   3 2.86   4 2.86   6 2.86   4 2.86   3 2.86   8 2.86
   3  0.375  0.819  0.069-   6 2.86   1 2.86   2 2.86   7 2.86   2 2.86   1 2.86   6 2.86
   4  0.375  0.264  0.014-   1 2.86   2 2.86   8 2.86   2 2.86   1 2.86
   5  0.875  0.208  0.208-  11 2.86   8 2.86   7 2.86  12 2.86   9 2.86   1 2.86  12 2.86   7 2.86
                            11 2.86   8 2.86
   6  0.875  0.653  0.153-   3 2.86  12 2.86   7 2.86   8 2.86  10 2.86   2 2.86   8 2.86   7 2.86
                             3 2.86  12 2.86
   7  0.375  0.931  0.181-  10 2.86   1 2.86   5 2.86   6 2.86  11 2.86   3 2.86   6 2.86   5 2.86
                            10 2.86   1 2.86
   8  0.375  0.375  0.125-   2 2.86   5 2.86   1 2.86   6 2.86   4 2.86  12 2.86   6 2.86   1 2.86
                             5 2.86   2 2.86
   9  0.875  0.319  0.319-  12 2.86  15 2.86  11 2.86  16 2.86   5 2.86  13 2.86  16 2.86  11 2.86
                            12 2.86  15 2.86
  10  0.875  0.764  0.264-   7 2.86  16 2.86  12 2.86  11 2.86   6 2.86  14 2.86  12 2.86  11 2.86
                             7 2.86  16 2.86
  11  0.375  0.042  0.292-   5 2.86  14 2.86   9 2.86  10 2.86   7 2.86  15 2.86  10 2.86   9 2.86
                             5 2.86  14 2.86
  12  0.375  0.486  0.236-   9 2.86   6 2.86  10 2.86   5 2.86  16 2.86   8 2.86  10 2.86   5 2.86
                             9 2.86   6 2.86
  13  0.875  0.431  0.431-  16 2.86  15 2.86   9 2.86  15 2.86  16 2.86
  14  0.875  0.875  0.375-  11 2.86  16 2.86  15 2.86  10 2.86  15 2.86  16 2.86  11 2.86
  15  0.375  0.153  0.403-   9 2.86  14 2.86  13 2.86  11 2.86  13 2.86  14 2.86   9 2.86
  16  0.375  0.597  0.347-  10 2.86  13 2.86   9 2.86  14 2.86  12 2.86  14 2.86   9 2.86  13 2.86
                            10 2.86

  LATTYP: Found a simple monoclinic cell.
 ALAT       =    24.4024590158
 B/A-ratio  =     0.3511065716
 C/A-ratio  =     1.9896522853
 COS(beta)  =    -0.9982923852

  Lattice vectors:

 A1 = (  -2.8659545748,   0.0000000000, -24.2335781591)
 A2 = (   0.0000000000,  -8.5678637244,   0.0000000000)
 A3 = (   2.8759545748,   0.0000000000,  48.4671563182)

Analysis of symmetry for initial positions (statically):
 Subroutine PRICEL returns:
 Original cell was already a primitive cell.

 Routine SETGRP: Setting up the symmetry group for a
 simple monoclinic supercell.

 Subroutine GETGRP returns: Found  2 space group operations
 (whereof  1 operations were pure point group operations)
 out of a pool of  4 trial point group operations.

The static configuration has the point symmetry C_1 .
 The point group associated with its full space group is S_2 .

Analysis of symmetry for dynamics (positions and initial velocities):
 Subroutine PRICEL returns:
 Original cell was already a primitive cell.

 Routine SETGRP: Setting up the symmetry group for a
 simple monoclinic supercell.

 Subroutine GETGRP returns: Found  2 space group operations
 (whereof  1 operations were pure point group operations)
 out of a pool of  4 trial point group operations.

The dynamic configuration has the point symmetry C_1 .
 The point group associated with its full space group is S_2 .

 Subroutine INISYM returns: Found  2 space group operations
 (whereof  1 operations are pure point group operations),
 and found     1 'primitive' translations

 KPOINTS: Automatic kpoint scheme

Automatic generation of k-mesh.
Space group operators:
 irot       det(A)        alpha          n_x          n_y          n_z        tau_x        tau_y        tau_z
    1     1.000000     0.000000     1.000000     0.000000     0.000000     0.000000     0.000000     0.000000
    2    -1.000000     0.000000     1.000000     0.000000     0.000000    -0.750000    -0.305556    -0.555556

 Subroutine IBZKPT returns following result:

 Found    560 irreducible k-points:

 Following reciprocal coordinates:
            Coordinates               Weight
  0.017857  0.050000  0.125000      2.000000
  0.053571  0.050000  0.125000      2.000000
  0.089286  0.050000  0.125000      2.000000
  0.125000  0.050000  0.125000      2.000000
  0.160714  0.050000  0.125000      2.000000
  0.196429  0.050000  0.125000      2.000000
  0.232143  0.050000  0.125000      2.000000
  0.267857  0.050000  0.125000      2.000000
  0.303571  0.050000  0.125000      2.000000
  0.339286  0.050000  0.125000      2.000000
  0.375000  0.050000  0.125000      2.000000
  0.410714  0.050000  0.125000      2.000000
  0.446429  0.050000  0.125000      2.000000
  0.482143  0.050000  0.125000      2.000000
 -0.482143  0.050000  0.125000      2.000000
 -0.446429  0.050000  0.125000      2.000000
 -0.410714  0.050000  0.125000      2.000000
 -0.375000  0.050000  0.125000      2.000000
 -0.339286  0.050000  0.125000      2.000000
 -0.303571  0.050000  0.125000      2.000000
 -0.267857  0.050000  0.125000      2.000000
 -0.232143  0.050000  0.125000      2.000000
 -0.196429  0.050000  0.125000      2.000000
 -0.160714  0.050000  0.125000      2.000000
 -0.125000  0.050000  0.125000      2.000000
 -0.089286  0.050000  0.125000      2.000000
 -0.053571  0.050000  0.125000      2.000000
 -0.017857  0.050000  0.125000      2.000000
  0.017857  0.150000  0.125000      2.000000
  0.053571  0.150000  0.125000      2.000000
  0.089286  0.150000  0.125000      2.000000
  0.125000  0.150000  0.125000      2.000000
  0.160714  0.150000  0.125000      2.000000
  0.196429  0.150000  0.125000      2.000000
  0.232143  0.150000  0.125000      2.000000
  0.267857  0.150000  0.125000      2.000000
  0.303571  0.150000  0.125000      2.000000
  0.339286  0.150000  0.125000      2.000000
  0.375000  0.150000  0.125000      2.000000
  0.410714  0.150000  0.125000      2.000000
  0.446429  0.150000  0.125000      2.000000
  0.482143  0.150000  0.125000      2.000000
 -0.482143  0.150000  0.125000      2.000000
 -0.446429  0.150000  0.125000      2.000000
 -0.410714  0.150000  0.125000      2.000000
 -0.375000  0.150000  0.125000      2.000000
 -0.339286  0.150000  0.125000      2.000000
 -0.303571  0.150000  0.125000      2.000000
 -0.267857  0.150000  0.125000      2.000000
 -0.232143  0.150000  0.125000      2.000000
 -0.196429  0.150000  0.125000      2.000000
 -0.160714  0.150000  0.125000      2.000000
 -0.125000  0.150000  0.125000      2.000000
 -0.089286  0.150000  0.125000      2.000000
 -0.053571  0.150000  0.125000      2.000000
 -0.017857  0.150000  0.125000      2.000000
  0.017857  0.250000  0.125000      2.000000
  0.053571  0.250000  0.125000      2.000000
  0.089286  0.250000  0.125000      2.000000
  0.125000  0.250000  0.125000      2.000000
[...]
  0.482143 -0.050000  0.375000      2.000000
 -0.482143 -0.050000  0.375000      2.000000
 -0.446429 -0.050000  0.375000      2.000000
 -0.410714 -0.050000  0.375000      2.000000
 -0.375000 -0.050000  0.375000      2.000000
 -0.339286 -0.050000  0.375000      2.000000
 -0.303571 -0.050000  0.375000      2.000000
 -0.267857 -0.050000  0.375000      2.000000
 -0.232143 -0.050000  0.375000      2.000000
 -0.196429 -0.050000  0.375000      2.000000
 -0.160714 -0.050000  0.375000      2.000000
 -0.125000 -0.050000  0.375000      2.000000
 -0.089286 -0.050000  0.375000      2.000000
 -0.053571 -0.050000  0.375000      2.000000
 -0.017857 -0.050000  0.375000      2.000000

 Following cartesian coordinates:
            Coordinates               Weight
  0.006253  0.005836  0.005156      2.000000
  0.018758  0.005836  0.005150      2.000000
  0.031263  0.005836  0.005145      2.000000
  0.043768  0.005836  0.005140      2.000000
  0.056273  0.005836  0.005135      2.000000
  0.068779  0.005836  0.005130      2.000000
  0.081284  0.005836  0.005125      2.000000
  0.093789  0.005836  0.005119      2.000000
  0.106294  0.005836  0.005114      2.000000
  0.118799  0.005836  0.005109      2.000000
  0.131305  0.005836  0.005104      2.000000
  0.143810  0.005836  0.005099      2.000000
  0.156315  0.005836  0.005094      2.000000
  0.168820  0.005836  0.005088      2.000000
 -0.168820  0.005836  0.005228      2.000000
 -0.156315  0.005836  0.005223      2.000000
 -0.143810  0.005836  0.005217      2.000000
 -0.131305  0.005836  0.005212      2.000000
 -0.118799  0.005836  0.005207      2.000000
 -0.106294  0.005836  0.005202      2.000000
 -0.093789  0.005836  0.005197      2.000000
 -0.081284  0.005836  0.005192      2.000000
 -0.068779  0.005836  0.005187      2.000000
 -0.056273  0.005836  0.005181      2.000000
 -0.043768  0.005836  0.005176      2.000000
 -0.031263  0.005836  0.005171      2.000000
 -0.018758  0.005836  0.005166      2.000000
 -0.006253  0.005836  0.005161      2.000000
  0.006253  0.017507  0.005156      2.000000
  0.018758  0.017507  0.005150      2.000000
  0.031263  0.017507  0.005145      2.000000
  0.043768  0.017507  0.005140      2.000000
  0.056273  0.017507  0.005135      2.000000
  0.068779  0.017507  0.005130      2.000000
  0.081284  0.017507  0.005125      2.000000
  0.093789  0.017507  0.005119      2.000000
  0.106294  0.017507  0.005114      2.000000
  0.118799  0.017507  0.005109      2.000000
  0.131305  0.017507  0.005104      2.000000
  0.143810  0.017507  0.005099      2.000000
  0.156315  0.017507  0.005094      2.000000
  0.168820  0.017507  0.005088      2.000000
 -0.168820  0.017507  0.005228      2.000000
 -0.156315  0.017507  0.005223      2.000000
 -0.143810  0.017507  0.005217      2.000000
 -0.131305  0.017507  0.005212      2.000000
 -0.118799  0.017507  0.005207      2.000000
 -0.106294  0.017507  0.005202      2.000000
 -0.093789  0.017507  0.005197      2.000000
 -0.081284  0.017507  0.005192      2.000000
 -0.068779  0.017507  0.005187      2.000000
 -0.056273  0.017507  0.005181      2.000000
 -0.043768  0.017507  0.005176      2.000000
 -0.031263  0.017507  0.005171      2.000000
 -0.018758  0.017507  0.005166      2.000000
 -0.006253  0.017507  0.005161      2.000000
[...]
 k-point ** :   0.3036-0.4500 0.1250  plane waves:   10740
 k-point ** :   0.3393-0.4500 0.1250  plane waves:   10744
 k-point ** :   0.3750-0.4500 0.1250  plane waves:   10757
 k-point ** :   0.4107-0.4500 0.1250  plane waves:   10742
 k-point ** :   0.4464-0.4500 0.1250  plane waves:   10767
 k-point ** :   0.4821-0.4500 0.1250  plane waves:   10753
 k-point ** :  -0.4821-0.4500 0.1250  plane waves:   10754
 k-point ** :  -0.4464-0.4500 0.1250  plane waves:   10763
 k-point ** :  -0.4107-0.4500 0.1250  plane waves:   10748
 k-point ** :  -0.3750-0.4500 0.1250  plane waves:   10758
 k-point ** :  -0.3393-0.4500 0.1250  plane waves:   10744
[...]
 k-point ** :   0.4821-0.0500 0.3750  plane waves:   10738
 k-point ** :  -0.4821-0.0500 0.3750  plane waves:   10735
 k-point ** :  -0.4464-0.0500 0.3750  plane waves:   10725
 k-point ** :  -0.4107-0.0500 0.3750  plane waves:   10730
 k-point ** :  -0.3750-0.0500 0.3750  plane waves:   10714
 k-point ** :  -0.3393-0.0500 0.3750  plane waves:   10719
 k-point ** :  -0.3036-0.0500 0.3750  plane waves:   10739
 k-point ** :  -0.2679-0.0500 0.3750  plane waves:   10752
 k-point ** :  -0.2321-0.0500 0.3750  plane waves:   10768
 k-point ** :  -0.1964-0.0500 0.3750  plane waves:   10778
 k-point ** :  -0.1607-0.0500 0.3750  plane waves:   10790
 k-point ** :  -0.1250-0.0500 0.3750  plane waves:   10795
 k-point ** :  -0.0893-0.0500 0.3750  plane waves:   10795
 k-point ** :  -0.0536-0.0500 0.3750  plane waves:   10798
 k-point ** :  -0.0179-0.0500 0.3750  plane waves:   10818

 maximum and minimum number of plane-waves per node :     10849    10711

 maximum number of plane-waves:     10849
 maximum index in each direction:
   IXMAX=    5   IYMAX=   14   IZMAX=   39
   IXMIN=   -5   IYMIN=  -14   IZMIN=  -39

 serial   3D FFT for wavefunctions
 parallel 3D FFT for charge:
    minimum data exchange during FFTs selected (reduces bandwidth)

 Broyden mixing: mesh for mixing (old mesh)
   NGX =  9   NGY = 27   NGZ = 79
  (NGX  = 40   NGY  =112   NGZ  =320)
  gives a total of  19197 points

 initial charge density was supplied:
 charge density of overlapping atoms calculated
 number of electron      48.0000000 magnetization
 keeping initial charge density in first step

 Maximum index for non-local projection operator         3238
 Maximum index for augmentation-charges         1082 (set IRDMAX)

 First call to EWALD:  gamma=   0.211
 Maximum number of real-space cells 7x 3x 1
 Maximum number of reciprocal cells 1x 3x 7

--------------------------------------- Iteration      1(   1)  ---------------------------------------

 eigenvalue-minimisations  : 71680
 total energy-change (2. order) : 0.5488230E+02  (-0.1310892E+04)
 number of electron      48.0000000 magnetization
 augmentation part       48.0000000 magnetization

 Free energy of the ion-electron system (eV)
  alpha Z        PSCENC =        -1.45005341
  Ewald energy   TEWEN  =      4189.85804882
  -Hartree energ DENC   =     -4988.01342443
  -exchange      EXHF   =         0.00000000
  -V(xc)+E(xc)   XCENC  =      -423.06372726
  PAW double counting   =      1059.20251401     -547.92993211
  entropy T*S    EENTRO =        -0.00130853
  eigenvalues    EBANDS =       -90.33028183
  atomic energy  EATOM  =       856.61046915
  Solvation  Ediel_sol  =         0.00000000
  free energy    TOTEN  =        54.88230441 eV

  energy without entropy =       54.88361294  energy(sigma->0) =       54.88274059

[...]

 eigenvalue-minimisations  : 97344
 total energy-change (2. order) :-0.1100239E+03  (-0.1037214E+03)
 number of electron      48.0000000 magnetization
 augmentation part       48.0000000 magnetization

[...]

 eigenvalue-minimisations  :102560
 total energy-change (2. order) :-0.4120650E+01  (-0.4095772E+01)
 number of electron      48.0000000 magnetization
 augmentation part       48.0000000 magnetization

[...]

 eigenvalue-minimisations  :116320
 total energy-change (2. order) :-0.2479505E-02  (-0.2479465E-02)
 number of electron      48.0000000 magnetization
 augmentation part       -0.6316076 magnetization

 Broyden mixing:
  rms(total) = 0.58395E+00    rms(broyden)= 0.58394E+00
  rms(prec ) = 0.82725E+00
  weight for this iteration     100.00

[...]

 eigenvalues of (default mixing * dielectric matrix)
  average eigenvalue GAMMA=   1.2549
  1.2549

[...]

 eigenvalue-minimisations  : 86773
 total energy-change (2. order) : 0.7020787E-03  (-0.1404914E-03)
 number of electron      48.0000000 magnetization
 augmentation part       -0.6549435 magnetization

[...]

 Broyden mixing:
  rms(total) = 0.22086E-04    rms(broyden)= 0.22086E-04
  rms(prec ) = 0.23204E-04
  weight for this iteration     100.00

 eigenvalues of (default mixing * dielectric matrix)
  average eigenvalue GAMMA=   2.3643
  9.0432  5.9293  3.9340  3.2537  2.6596  2.6596  1.8278  1.8278  1.5436  0.5572
  1.1618  1.0303  1.0303  0.8201  1.0079  1.0079  0.8982

[...]

--------------------------------------- Iteration      1(  23)  ---------------------------------------

 eigenvalue-minimisations  : 57329
 total energy-change (2. order) :-0.2807019E-06  (-0.2688058E-08)
 number of electron      48.0000000 magnetization
 augmentation part       -0.6552538 magnetization

 Free energy of the ion-electron system (eV)
  alpha Z        PSCENC =        -1.45005341
  Ewald energy   TEWEN  =      4189.85804882
  -Hartree energ DENC   =     -5056.30198060
  -exchange      EXHF   =         0.00000000
  -V(xc)+E(xc)   XCENC  =      -421.03592054
  PAW double counting   =      2116.29178096    -1605.19721715
  entropy T*S    EENTRO =        -0.00528299
  eigenvalues    EBANDS =      -135.76684846
  atomic energy  EATOM  =       856.61046915
  Solvation  Ediel_sol  =         0.00000000
  free energy    TOTEN  =       -56.99700422 eV

  energy without entropy =      -56.99172123  energy(sigma->0) =      -56.99524322

 average (electrostatic) potential at core
  the test charge radii are     1.0406
  (the norm of the test charge is              1.0000)
       1 -79.2860       2 -79.3578       3 -79.3358       4 -79.3936       5 -79.2528
       6 -79.2614       7 -79.2641       8 -79.2188       9 -79.2188      10 -79.2641
      11 -79.2614      12 -79.2528      13 -79.3936      14 -79.3358      15 -79.3578
      16 -79.2860

 E-fermi :   1.3596     XC(G=0):  -5.3821     alpha+bet : -6.6231

 k-point     1 :       0.0179    0.0500    0.1250
  band No.  band energies     occupation
      1      -9.4822      2.00000
      2      -8.6448      2.00000
      3      -7.7063      2.00000
      4      -7.4073      2.00000
      5      -7.2281      2.00000
      6      -6.8599      2.00000
      7      -6.4742      2.00000
      8      -5.7099      2.00000
      9      -5.4764      2.00000
     10      -5.1148      2.00000
     11      -3.7906      2.00000
     12      -3.6188      2.00000
     13      -3.3664      2.00000
     14      -2.0949      2.00000
     15      -1.7707      2.00000
     16      -1.6977      2.00000
     17      -1.4941      2.00000
     18      -1.4215      2.00000
     19      -1.0718      2.00000
     20      -0.3679      2.00000
     21       0.3044      2.00000
     22       0.4388      2.00000
     23       0.6853      2.00002
     24       0.9619      2.01659
     25       1.2886      1.56061
     26       2.1329     -0.00000
     27       2.2068     -0.00000
     28       2.8021     -0.00000
     29       3.0273     -0.00000
     30       3.5351     -0.00000
     31       4.1700     -0.00000
     32       4.4838     -0.00000
     33       4.8115     -0.00000
     34       5.0968     -0.00000
     35       5.2926     -0.00000
     36       5.5661     -0.00000
     37       5.8620     -0.00000
     38       6.2351     -0.00000
     39       6.5351     -0.00000
     40       6.7572     -0.00000
     41       6.9566      0.00000
     42       7.1443      0.00000
     43       7.2656      0.00000
     44       7.3396      0.00000
     45       7.5529      0.00000
     46       7.7091      0.00000
     47       7.7465      0.00000
     48       7.7748      0.00000
     49       7.8759      0.00000
     50       8.0634      0.00000
     51       8.2154      0.00000
     52       8.2559      0.00000
     53       8.4061      0.00000
     54       8.6216      0.00000
     55       8.7506      0.00000
     56       8.8793      0.00000
     57       8.9604      0.00000
     58       9.0945      0.00000
     59       9.2611      0.00000
     60       9.3244      0.00000
     61       9.4366      0.00000
     62       9.5829      0.00000
     63       9.6278      0.00000
     64       9.7937      0.00000

[...]

 k-point   560 :      -0.0179   -0.0500    0.3750
  band No.  band energies     occupation
      1      -9.4822      2.00000
      2      -8.6448      2.00000
      3      -7.7063      2.00000
      4      -7.4073      2.00000
      5      -7.2281      2.00000
      6      -6.8599      2.00000
      7      -6.4742      2.00000
      8      -5.7099      2.00000
      9      -5.4764      2.00000
     10      -5.1148      2.00000
     11      -3.7906      2.00000
     12      -3.6188      2.00000
     13      -3.3664      2.00000
     14      -2.0949      2.00000
     15      -1.7707      2.00000
     16      -1.6977      2.00000
     17      -1.4941      2.00000
     18      -1.4215      2.00000
     19      -1.0718      2.00000
     20      -0.3679      2.00000
     21       0.3044      2.00000
     22       0.4388      2.00000
     23       0.6853      2.00002
     24       0.9619      2.01659
     25       1.2886      1.56064
     26       2.1329     -0.00000
     27       2.2067     -0.00000
     28       2.8021     -0.00000
     29       3.0265     -0.00000
     30       3.5353     -0.00000
     31       4.1724     -0.00000
     32       4.4921     -0.00000
     33       4.8551     -0.00000
     34       5.0622     -0.00000
     35       5.1968     -0.00000
     36       5.5046     -0.00000
     37       6.1201     -0.00000
     38       6.3275     -0.00000
     39       6.5558     -0.00000
     40       6.6205     -0.00000
     41       6.9664      0.00000
     42       7.0149      0.00000
     43       7.1496      0.00000
     44       7.2756      0.00000
     45       7.3613      0.00000
     46       7.6918      0.00000
     47       7.7506      0.00000
     48       7.7751      0.00000
     49       8.1572      0.00000
     50       8.2530      0.00000
     51       8.3900      0.00000
     52       8.4161      0.00000
     53       8.5645      0.00000
     54       8.5907      0.00000
     55       8.7675      0.00000
     56       8.7796      0.00000
     57       8.8705      0.00000
     58       8.9674      0.00000
     59       9.1991      0.00000
     60       9.2769      0.00000
     61       9.3103      0.00000
     62       9.4380      0.00000
     63       9.5726      0.00000
     64       9.6411      0.00000

 soft charge-density along one line, spin component           1
         0         1         2         3         4         5         6         7         8         9
 total charge-density along one line

------------------------ aborting loop because EDIFF is reached ----------------------------------------

  FORCE on cell =-STRESS in cart. coord.  units (eV):
  Direction    XX          YY          ZZ          XY          YZ          ZX
  Alpha Z    -1.45005    -1.45005    -1.45005
  Ewald    4969.30288  4919.42970 -5698.87624     0.01935    11.11440    -0.02001
  Hartree  5055.25123  5030.52180 -5029.46860     0.00032     3.72649     0.00089
  E(xc)    -134.30726  -134.37660  -134.66314    -0.00028     0.02359     0.00130
  Local  -10411.58193-10336.23691 10344.62121    -0.01779   -14.93347     0.02226
  n-local   307.66712   306.24240   301.57541     0.00302     0.40652    -0.01487
  augment   -17.57160   -17.51224   -17.35361    -0.00012     0.01345     0.00081
  Kinetic   227.67632   229.75395   235.83673    -0.00277    -1.41796    -0.00454
  Fock        0.00000     0.00000     0.00000     0.00000     0.00000     0.00000
  Total      -5.01329    -3.62795     0.22171     0.00172    -1.06699    -0.01416
  in kB     -13.54540    -9.80235     0.59904     0.00466    -2.88289    -0.03827

 VOLUME and BASIS-vectors are now :
  energy-cutoff  :      400.00
  volume of cell :      592.98
      direct lattice vectors                 reciprocal lattice vectors
     2.855954575  0.000000000  0.000000000     0.350145625  0.000000000 -0.000144488
    -0.000000000  8.567863724  0.000000000     0.000000000  0.116715208  0.000000000
     0.010000000  0.000000000 24.233578159    -0.000000000 -0.000000000  0.041265058

  length of vectors
     2.855954575  8.567863724 24.233580222     0.350145655  0.116715208  0.041265058

 FORCES acting on ions
    electron-ion (+dipol)            ewald-force                    non-local-force                 convergence-correction
   0.125E-02 0.826E+01 0.170E+03   -.878E-03 -.814E+01 -.170E+03   -.199E-03 -.239E+00 -.476E+00   0.186E-08 0.316E-05 -.604E-04
   -.110E-02 -.123E+02 0.231E+03   0.739E-03 0.119E+02 -.230E+03   0.746E-03 0.483E+00 -.133E+01   -.340E-09 -.598E-05 -.679E-04
   -.119E-02 -.742E+01 0.212E+03   0.770E-03 0.726E+01 -.211E+03   0.930E-03 0.193E+00 -.125E+01   -.829E-09 0.118E-05 -.667E-04
   -.176E-02 0.128E+02 0.248E+03   0.129E-02 -.124E+02 -.247E+03   0.108E-02 -.248E+00 -.129E+01   -.279E-09 0.629E-06 -.729E-04
   0.254E-04 0.140E+01 0.187E+02   -.239E-05 -.127E+01 -.187E+02   0.243E-05 -.103E+00 -.573E-01   0.273E-08 -.101E-04 -.132E-04
   0.913E-04 -.291E+01 0.921E+02   0.670E-05 0.279E+01 -.922E+02   -.595E-04 -.224E-01 0.868E-01   0.200E-08 0.515E-05 -.394E-04
   -.250E-03 0.577E+00 0.569E+02   0.173E-04 -.509E+00 -.569E+02   0.258E-03 -.108E+00 0.422E-01   -.204E-08 0.404E-06 -.210E-04
   0.143E-03 0.411E+00 0.125E+03   0.212E-04 -.493E+00 -.125E+03   -.135E-03 0.705E-01 0.772E-01   -.193E-08 -.153E-05 -.645E-04
   -.143E-03 -.411E+00 -.125E+03   -.212E-04 0.493E+00 0.125E+03   0.135E-03 -.705E-01 -.772E-01   0.193E-08 0.153E-05 0.645E-04
   0.250E-03 -.577E+00 -.569E+02   -.173E-04 0.509E+00 0.569E+02   -.258E-03 0.108E+00 -.422E-01   0.204E-08 -.405E-06 0.210E-04
   -.913E-04 0.291E+01 -.921E+02   -.670E-05 -.279E+01 0.922E+02   0.595E-04 0.224E-01 -.868E-01   -.200E-08 -.515E-05 0.394E-04
   -.253E-04 -.140E+01 -.187E+02   0.239E-05 0.127E+01 0.187E+02   -.243E-05 0.103E+00 0.573E-01   -.273E-08 0.101E-04 0.132E-04
   0.176E-02 -.128E+02 -.248E+03   -.129E-02 0.124E+02 0.247E+03   -.108E-02 0.248E+00 0.129E+01   0.280E-09 -.629E-06 0.729E-04
   0.119E-02 0.742E+01 -.212E+03   -.770E-03 -.726E+01 0.211E+03   -.930E-03 -.193E+00 0.125E+01   0.830E-09 -.118E-05 0.667E-04
   0.110E-02 0.123E+02 -.231E+03   -.739E-03 -.119E+02 0.230E+03   -.746E-03 -.483E+00 0.133E+01   0.338E-09 0.598E-05 0.679E-04
   -.125E-02 -.826E+01 -.170E+03   0.878E-03 0.814E+01 0.170E+03   0.199E-03 0.239E+00 0.476E+00   -.187E-08 -.316E-05 0.604E-04
   0.656E-07 -.295E-04 0.187E-04   0.128E-14 0.355E-14 -.853E-13   0.325E-18 0.278E-16 -.111E-15   0.123E-12 -.100E-09 -.258E-08

 POSITION                                       TOTAL-FORCE (eV/Angst)
      2.49993      0.83299      2.35604         0.000177     -0.121566     -0.196565
      2.49938      4.64093      1.00973         0.000382      0.078634     -0.046199
      1.07168      7.02089      1.68289         0.000515      0.031567     -0.070365
      1.07112      2.26096      0.33658         0.000611      0.144337      0.164678
      2.50104      1.78497      5.04866         0.000025      0.025564     -0.033455
      2.50049      5.59291      3.70235         0.000038     -0.135761      0.017090
      1.07279      7.97287      4.37551         0.000026     -0.039686      0.050513
      1.07223      3.21295      3.02920         0.000029     -0.012041      0.012279
      2.50215      2.73696      7.74128        -0.000029      0.012041     -0.012279
      2.50160      6.54490      6.39497        -0.000026      0.039686     -0.050513
      1.07390      0.35699      7.06813        -0.000038      0.135761     -0.017090
      1.07334      4.16493      5.72182        -0.000025     -0.025564      0.033455
      2.50327      3.68894     10.43390        -0.000611     -0.144337     -0.164678
      2.50271      7.49688      9.08759        -0.000515     -0.031567      0.070365
      1.07501      1.30898      9.76075        -0.000382     -0.078634      0.046199
      1.07446      5.11692      8.41444        -0.000177      0.121566      0.196565
    total drift:                                0.000000     -0.000030      0.000019

  FREE ENERGIE OF THE ION-ELECTRON SYSTEM (eV)
  free  energy   TOTEN  =       -56.99700422 eV

  energy  without entropy=      -56.99172123  energy(sigma->0) =      -56.99524322