 vasp.5.4.4.18Apr17-6-g9f103f2a35 (build Nov 07 2022 11:18:25) complex

 executed on             LinuxIFC date 2024.05.28  09:30:03

 INCAR:
 POTCAR:    PAW_PBE Al 04Jan2001

   TITEL  = PAW_PBE Al 04Jan2001
   POMASS =   26.981; ZVAL   =    3.000    mass and valenz
   ENMAX  =  240.300; ENMIN  =  180.225 eV

 Optimization of the real space projectors (new method)

 maximal supplied QI-value         = 19.84
 optimisation between [QCUT,QGAM] = [ 10.12, 20.44] = [ 28.68,116.96] Ry
 Optimized for a Real-space Cutoff    1.38 Angstroem

   l    n(q)    QCUT    max X(q) W(low)/X(q) W(high)/X(q)  e(spline)
   0      8    10.119   176.870    0.39E-04    0.93E-04    0.54E-07
   0      8    10.119   105.762    0.37E-04    0.91E-04    0.53E-07
   1      8    10.119    55.370    0.18E-03    0.13E-03    0.19E-06
   1      8    10.119    20.208    0.17E-03    0.12E-03    0.18E-06
  PAW_PBE Al 04Jan2001                  :

 POSCAR: Al4
  positions in direct lattice
 exchange correlation table for  LEXCH =        8
   RHO(1)=    0.500       N(1)  =     2000
   RHO(2)=  100.500       N(2)  =     4000

 ion  position               nearest neighbor table
   1  0.000  0.000  0.000-   2 2.86   3 2.86   4 2.86   2 2.86   3 2.86   2 2.86   4 2.86   2 2.86
                             3 2.86   4 2.86   3 2.86   4 2.86
   2  0.000  0.500  0.500-   1 2.86   3 2.86   4 2.86   1 2.86   4 2.86   1 2.86   3 2.86   1 2.86
                             3 2.86   4 2.86   4 2.86   3 2.86
   3  0.500  0.000  0.500-   1 2.86   2 2.86   4 2.86   1 2.86   4 2.86   2 2.86   4 2.86   4 2.86
                             1 2.86   2 2.86   1 2.86   2 2.86
   4  0.500  0.500  0.000-   1 2.86   2 2.86   3 2.86   2 2.86   3 2.86   1 2.86   3 2.86   3 2.86
                             1 2.86   2 2.86   2 2.86   1 2.86

  LATTYP: Found a simple cubic cell.
 ALAT       =     4.0389296932

  Lattice vectors:

 A1 = (   4.0389296932,   0.0000000000,   0.0000000000)
 A2 = (  -0.0000000000,   4.0389296932,   0.0000000000)
 A3 = (   0.0000000000,   0.0000000000,   4.0389296932)

Analysis of symmetry for initial positions (statically):
 Subroutine PRICEL returns following result:

  LATTYP: Found a face centered cubic cell.
 ALAT       =     4.0389296932

[...]

   4 primitive cells build up your supercell.

 Routine SETGRP: Setting up the symmetry group for a
 simple cubic supercell.

 Subroutine GETGRP returns: Found 48 space group operations
 (whereof 48 operations were pure point group operations)
 out of a pool of 48 trial point group operations.

The static configuration has the point symmetry O_h .

Analysis of symmetry for dynamics (positions and initial velocities):
 Subroutine PRICEL returns following result:

  LATTYP: Found a face centered cubic cell.
 ALAT       =     4.0389296932

  Lattice vectors:

 A1 = (   2.0194648466,   2.0194648466,  -0.0000000000)
 A2 = (   2.0194648466,   0.0000000000,  -2.0194648466)
 A3 = (   0.0000000000,   2.0194648466,  -2.0194648466)

   4 primitive cells build up your supercell.

 Routine SETGRP: Setting up the symmetry group for a
 simple cubic supercell.

 Subroutine GETGRP returns: Found 48 space group operations
 (whereof 48 operations were pure point group operations)
 out of a pool of 48 trial point group operations.

The dynamic configuration has the point symmetry O_h .

 Subroutine INISYM returns: Found 48 space group operations
 (whereof 48 operations are pure point group operations),
 and found     4 'primitive' translations

 KPOINTS: Automatic kpoint scheme

Automatic generation of k-mesh.
Space group operators:
 irot       det(A)        alpha          n_x          n_y          n_z        tau_x        tau_y        tau_z
    1     1.000000     0.000000     1.000000     0.000000     0.000000     0.000000     0.000000     0.000000
    2    -1.000000     0.000000     1.000000     0.000000     0.000000     0.000000     0.000000     0.000000
    3     1.000000   120.000000    -0.577350    -0.577350    -0.577350     0.000000     0.000000     0.000000
    4    -1.000000   120.000000    -0.577350    -0.577350    -0.577350     0.000000     0.000000     0.000000
    5     1.000000   120.000000     0.577350     0.577350     0.577350     0.000000     0.000000     0.000000
    6    -1.000000   120.000000     0.577350     0.577350     0.577350     0.000000     0.000000     0.000000
    7     1.000000    90.000000     0.000000    -0.000000    -1.000000     0.000000     0.000000     0.000000
    8    -1.000000    90.000000     0.000000    -0.000000    -1.000000     0.000000     0.000000     0.000000
    9     1.000000   180.000000     0.000000    -0.707107    -0.707107     0.000000     0.000000     0.000000
   10    -1.000000   180.000000     0.000000    -0.707107    -0.707107     0.000000     0.000000     0.000000
   11     1.000000    90.000000    -0.000000     1.000000     0.000000     0.000000     0.000000     0.000000
   12    -1.000000    90.000000    -0.000000     1.000000     0.000000     0.000000     0.000000     0.000000
   13     1.000000   180.000000    -0.000000    -0.000000     1.000000     0.000000     0.000000     0.000000
   14    -1.000000   180.000000    -0.000000    -0.000000     1.000000     0.000000     0.000000     0.000000
   15     1.000000   120.000000    -0.577350     0.577350     0.577350     0.000000     0.000000     0.000000
   16    -1.000000   120.000000    -0.577350     0.577350     0.577350     0.000000     0.000000     0.000000
   17     1.000000   120.000000    -0.577350     0.577350    -0.577350     0.000000     0.000000     0.000000
   18    -1.000000   120.000000    -0.577350     0.577350    -0.577350     0.000000     0.000000     0.000000
   19     1.000000    90.000000     0.000000    -0.000000     1.000000     0.000000     0.000000     0.000000
   20    -1.000000    90.000000     0.000000    -0.000000     1.000000     0.000000     0.000000     0.000000
   21     1.000000    90.000000    -1.000000     0.000000     0.000000     0.000000     0.000000     0.000000
   22    -1.000000    90.000000    -1.000000     0.000000     0.000000     0.000000     0.000000     0.000000
   23     1.000000   180.000000    -0.707107     0.000000    -0.707107     0.000000     0.000000     0.000000
   24    -1.000000   180.000000    -0.707107     0.000000    -0.707107     0.000000     0.000000     0.000000
   25     1.000000   120.000000     0.577350    -0.577350     0.577350     0.000000     0.000000     0.000000
   26    -1.000000   120.000000     0.577350    -0.577350     0.577350     0.000000     0.000000     0.000000
   27     1.000000   120.000000    -0.577350    -0.577350     0.577350     0.000000     0.000000     0.000000
   28    -1.000000   120.000000    -0.577350    -0.577350     0.577350     0.000000     0.000000     0.000000
   29     1.000000   180.000000     1.000000     0.000000     0.000000     0.000000     0.000000     0.000000
   30    -1.000000   180.000000     1.000000     0.000000     0.000000     0.000000     0.000000     0.000000
   31     1.000000    90.000000     0.000000    -1.000000    -0.000000     0.000000     0.000000     0.000000
   32    -1.000000    90.000000     0.000000    -1.000000    -0.000000     0.000000     0.000000     0.000000
   33     1.000000   180.000000    -0.707107    -0.707107     0.000000     0.000000     0.000000     0.000000
   34    -1.000000   180.000000    -0.707107    -0.707107     0.000000     0.000000     0.000000     0.000000
   35     1.000000    90.000000     1.000000     0.000000     0.000000     0.000000     0.000000     0.000000
   36    -1.000000    90.000000     1.000000     0.000000     0.000000     0.000000     0.000000     0.000000
   37     1.000000   120.000000     0.577350    -0.577350    -0.577350     0.000000     0.000000     0.000000
   38    -1.000000   120.000000     0.577350    -0.577350    -0.577350     0.000000     0.000000     0.000000
   39     1.000000   180.000000     0.000000     1.000000     0.000000     0.000000     0.000000     0.000000
   40    -1.000000   180.000000     0.000000     1.000000     0.000000     0.000000     0.000000     0.000000
   41     1.000000   120.000000     0.577350     0.577350    -0.577350     0.000000     0.000000     0.000000
   42    -1.000000   120.000000     0.577350     0.577350    -0.577350     0.000000     0.000000     0.000000
   43     1.000000   180.000000    -0.000000    -0.707107     0.707107     0.000000     0.000000     0.000000
   44    -1.000000   180.000000    -0.000000    -0.707107     0.707107     0.000000     0.000000     0.000000
   45     1.000000   180.000000     0.707107    -0.707107     0.000000     0.000000     0.000000     0.000000
   46    -1.000000   180.000000     0.707107    -0.707107     0.000000     0.000000     0.000000     0.000000
   47     1.000000   180.000000     0.707107     0.000000    -0.707107     0.000000     0.000000     0.000000
   48    -1.000000   180.000000     0.707107     0.000000    -0.707107     0.000000     0.000000     0.000000

 Subroutine IBZKPT returns following result:

 Found    220 irreducible k-points:

 Following reciprocal coordinates:
            Coordinates               Weight
  0.025000  0.025000  0.025000      8.000000
  0.075000  0.025000  0.025000     24.000000
  0.125000  0.025000  0.025000     24.000000
  0.175000  0.025000  0.025000     24.000000
  0.225000  0.025000  0.025000     24.000000
  0.275000  0.025000  0.025000     24.000000
  0.325000  0.025000  0.025000     24.000000
  0.375000  0.025000  0.025000     24.000000
  0.425000  0.025000  0.025000     24.000000
  0.475000  0.025000  0.025000     24.000000
  0.075000  0.075000  0.025000     24.000000
  0.125000  0.075000  0.025000     48.000000
  0.175000  0.075000  0.025000     48.000000
  0.225000  0.075000  0.025000     48.000000
  0.275000  0.075000  0.025000     48.000000
  0.325000  0.075000  0.025000     48.000000
  0.375000  0.075000  0.025000     48.000000
  0.425000  0.075000  0.025000     48.000000
  0.475000  0.075000  0.025000     48.000000
  0.125000  0.125000  0.025000     24.000000
  0.175000  0.125000  0.025000     48.000000
  0.225000  0.125000  0.025000     48.000000
  0.275000  0.125000  0.025000     48.000000
  0.325000  0.125000  0.025000     48.000000
  0.375000  0.125000  0.025000     48.000000
  0.425000  0.125000  0.025000     48.000000
  0.475000  0.125000  0.025000     48.000000
  0.175000  0.175000  0.025000     24.000000
  0.225000  0.175000  0.025000     48.000000
  0.275000  0.175000  0.025000     48.000000
  0.325000  0.175000  0.025000     48.000000
  0.375000  0.175000  0.025000     48.000000
  0.425000  0.175000  0.025000     48.000000
  0.475000  0.175000  0.025000     48.000000
  0.225000  0.225000  0.025000     24.000000
  0.275000  0.225000  0.025000     48.000000
  0.325000  0.225000  0.025000     48.000000
  0.375000  0.225000  0.025000     48.000000
  0.425000  0.225000  0.025000     48.000000
  0.475000  0.225000  0.025000     48.000000
  0.275000  0.275000  0.025000     24.000000
  0.325000  0.275000  0.025000     48.000000
  0.375000  0.275000  0.025000     48.000000
  0.425000  0.275000  0.025000     48.000000
  0.475000  0.275000  0.025000     48.000000
[...]
 k-point 34 :   0.4750 0.1750 0.0250  plane waves:    1199
 k-point 35 :   0.2250 0.2250 0.0250  plane waves:    1199
 k-point 36 :   0.2750 0.2250 0.0250  plane waves:    1196
 k-point 37 :   0.3250 0.2250 0.0250  plane waves:    1195
 k-point 38 :   0.3750 0.2250 0.0250  plane waves:    1203
 k-point 39 :   0.4250 0.2250 0.0250  plane waves:    1198
 k-point 40 :   0.4750 0.2250 0.0250  plane waves:    1194
 k-point 41 :   0.2750 0.2750 0.0250  plane waves:    1191
 k-point 42 :   0.3250 0.2750 0.0250  plane waves:    1191
 k-point 43 :   0.3750 0.2750 0.0250  plane waves:    1191
 k-point 44 :   0.4250 0.2750 0.0250  plane waves:    1196
 k-point 45 :   0.4750 0.2750 0.0250  plane waves:    1193
 k-point 46 :   0.3250 0.3250 0.0250  plane waves:    1191
 k-point 47 :   0.3750 0.3250 0.0250  plane waves:    1192
 k-point 48 :   0.4250 0.3250 0.0250  plane waves:    1190
 k-point 49 :   0.4750 0.3250 0.0250  plane waves:    1194
 k-point 50 :   0.3750 0.3750 0.0250  plane waves:    1190
 k-point 51 :   0.4250 0.3750 0.0250  plane waves:    1197
 k-point 52 :   0.4750 0.3750 0.0250  plane waves:    1197
 k-point 53 :   0.4250 0.4250 0.0250  plane waves:    1198
 k-point 54 :   0.4750 0.4250 0.0250  plane waves:    1199
 k-point 55 :   0.4750 0.4750 0.0250  plane waves:    1200
 k-point 56 :   0.0750 0.0750 0.0750  plane waves:    1213
 k-point 57 :   0.1250 0.0750 0.0750  plane waves:    1212
 k-point 58 :   0.1750 0.0750 0.0750  plane waves:    1211
 k-point 59 :   0.2250 0.0750 0.0750  plane waves:    1206
 k-point 60 :   0.2750 0.0750 0.0750  plane waves:    1200
[...]
 k-point 85 :   0.4750 0.2250 0.0750  plane waves:    1195
 k-point 86 :   0.2750 0.2750 0.0750  plane waves:    1200
 k-point 87 :   0.3250 0.2750 0.0750  plane waves:    1196
 k-point 88 :   0.3750 0.2750 0.0750  plane waves:    1198
 k-point 89 :   0.4250 0.2750 0.0750  plane waves:    1197
 k-point 90 :   0.4750 0.2750 0.0750  plane waves:    1196
 k-point 91 :   0.3250 0.3250 0.0750  plane waves:    1194
 k-point 92 :   0.3750 0.3250 0.0750  plane waves:    1189
 k-point 93 :   0.4250 0.3250 0.0750  plane waves:    1197
 k-point 94 :   0.4750 0.3250 0.0750  plane waves:    1195
 k-point 95 :   0.3750 0.3750 0.0750  plane waves:    1192
 k-point 96 :   0.4250 0.3750 0.0750  plane waves:    1195
 k-point 97 :   0.4750 0.3750 0.0750  plane waves:    1194
 k-point 98 :   0.4250 0.4250 0.0750  plane waves:    1195
 k-point 99 :   0.4750 0.4250 0.0750  plane waves:    1195
 k-point ** :   0.4750 0.4750 0.0750  plane waves:    1196
 k-point ** :   0.1250 0.1250 0.1250  plane waves:    1216
 k-point ** :   0.1750 0.1250 0.1250  plane waves:    1205
 k-point ** :   0.2250 0.1250 0.1250  plane waves:    1206
 k-point ** :   0.2750 0.1250 0.1250  plane waves:    1202
 k-point ** :   0.3250 0.1250 0.1250  plane waves:    1196
 k-point ** :   0.3750 0.1250 0.1250  plane waves:    1193
 k-point ** :   0.4250 0.1250 0.1250  plane waves:    1193
 k-point ** :   0.4750 0.1250 0.1250  plane waves:    1194
 k-point ** :   0.1750 0.1750 0.1250  plane waves:    1211
 k-point ** :   0.2250 0.1750 0.1250  plane waves:    1206
 k-point ** :   0.2750 0.1750 0.1250  plane waves:    1201
 k-point ** :   0.3250 0.1750 0.1250  plane waves:    1196
 k-point ** :   0.3750 0.1750 0.1250  plane waves:    1194
 k-point ** :   0.4250 0.1750 0.1250  plane waves:    1194
 k-point ** :   0.4750 0.1750 0.1250  plane waves:    1192
 k-point ** :   0.2250 0.2250 0.1250  plane waves:    1208
 k-point ** :   0.2750 0.2250 0.1250  plane waves:    1204
 k-point ** :   0.3250 0.2250 0.1250  plane waves:    1200
 k-point ** :   0.3750 0.2250 0.1250  plane waves:    1195
 k-point ** :   0.4250 0.2250 0.1250  plane waves:    1191
 k-point ** :   0.4750 0.2250 0.1250  plane waves:    1192
 k-point ** :   0.2750 0.2750 0.1250  plane waves:    1201
 k-point ** :   0.3250 0.2750 0.1250  plane waves:    1199
 k-point ** :   0.3750 0.2750 0.1250  plane waves:    1198
 k-point ** :   0.4250 0.2750 0.1250  plane waves:    1200
 k-point ** :   0.4750 0.2750 0.1250  plane waves:    1195
 k-point ** :   0.3250 0.3250 0.1250  plane waves:    1196
 k-point ** :   0.3750 0.3250 0.1250  plane waves:    1196
 k-point ** :   0.4250 0.3250 0.1250  plane waves:    1197
 k-point ** :   0.4750 0.3250 0.1250  plane waves:    1194
 k-point ** :   0.3750 0.3750 0.1250  plane waves:    1202
 k-point ** :   0.4250 0.3750 0.1250  plane waves:    1191
 k-point ** :   0.4750 0.3750 0.1250  plane waves:    1194
 k-point ** :   0.4250 0.4250 0.1250  plane waves:    1191
 k-point ** :   0.4750 0.4250 0.1250  plane waves:    1195
 k-point ** :   0.4750 0.4750 0.1250  plane waves:    1194
 k-point ** :   0.1750 0.1750 0.1750  plane waves:    1207
 k-point ** :   0.2250 0.1750 0.1750  plane waves:    1203
 k-point ** :   0.2750 0.1750 0.1750  plane waves:    1201
 k-point ** :   0.3250 0.1750 0.1750  plane waves:    1199
 k-point ** :   0.3750 0.1750 0.1750  plane waves:    1194
 k-point ** :   0.4250 0.1750 0.1750  plane waves:    1191
 k-point ** :   0.4750 0.1750 0.1750  plane waves:    1191
 k-point ** :   0.2250 0.2250 0.1750  plane waves:    1203
 k-point ** :   0.2750 0.2250 0.1750  plane waves:    1202
 k-point ** :   0.3250 0.2250 0.1750  plane waves:    1195
 k-point ** :   0.3750 0.2250 0.1750  plane waves:    1191
 k-point ** :   0.4250 0.2250 0.1750  plane waves:    1190
 k-point ** :   0.4750 0.2250 0.1750  plane waves:    1191
 k-point ** :   0.2750 0.2750 0.1750  plane waves:    1201
 k-point ** :   0.3250 0.2750 0.1750  plane waves:    1196
 k-point ** :   0.3750 0.2750 0.1750  plane waves:    1195
 k-point ** :   0.4250 0.2750 0.1750  plane waves:    1195
 k-point ** :   0.4750 0.2750 0.1750  plane waves:    1194
 k-point ** :   0.3250 0.3250 0.1750  plane waves:    1197
 k-point ** :   0.3750 0.3250 0.1750  plane waves:    1196
 k-point ** :   0.4250 0.3250 0.1750  plane waves:    1196
 k-point ** :   0.4750 0.3250 0.1750  plane waves:    1197
 k-point ** :   0.3750 0.3750 0.1750  plane waves:    1192
[...]
 k-point ** :   0.4250 0.3750 0.3250  plane waves:    1189
 k-point ** :   0.4750 0.3750 0.3250  plane waves:    1188
 k-point ** :   0.4250 0.4250 0.3250  plane waves:    1191
 k-point ** :   0.4750 0.4250 0.3250  plane waves:    1189
 k-point ** :   0.4750 0.4750 0.3250  plane waves:    1192
 k-point ** :   0.3750 0.3750 0.3750  plane waves:    1190
 k-point ** :   0.4250 0.3750 0.3750  plane waves:    1190
 k-point ** :   0.4750 0.3750 0.3750  plane waves:    1192
 k-point ** :   0.4250 0.4250 0.3750  plane waves:    1185
 k-point ** :   0.4750 0.4250 0.3750  plane waves:    1183
 k-point ** :   0.4750 0.4750 0.3750  plane waves:    1186
 k-point ** :   0.4250 0.4250 0.4250  plane waves:    1178
 k-point ** :   0.4750 0.4250 0.4250  plane waves:    1175
 k-point ** :   0.4750 0.4750 0.4250  plane waves:    1182
 k-point ** :   0.4750 0.4750 0.4750  plane waves:    1208

 maximum and minimum number of plane-waves per node :      1216     1175

 maximum number of plane-waves:      1216
 maximum index in each direction:
   IXMAX=    6   IYMAX=    6   IZMAX=    6
   IXMIN=   -7   IYMIN=   -7   IZMIN=   -7

 serial   3D FFT for wavefunctions
 parallel 3D FFT for charge:
    minimum data exchange during FFTs selected (reduces bandwidth)

 Broyden mixing: mesh for mixing (old mesh)
   NGX = 13   NGY = 13   NGZ = 13
  (NGX  = 56   NGY  = 56   NGZ  = 56)
  gives a total of   2197 points

 initial charge density was supplied:
 charge density of overlapping atoms calculated
 number of electron      12.0000000 magnetization
 keeping initial charge density in first step

 Maximum index for non-local projection operator         3575
 Maximum index for augmentation-charges          665 (set IRDMAX)

 First call to EWALD:  gamma=   0.439
 Maximum number of real-space cells 3x 3x 3
 Maximum number of reciprocal cells 3x 3x 3

--------------------------------------- Iteration      1(   1)  ---------------------------------------

 eigenvalue-minimisations  : 14080
 total energy-change (2. order) :-0.9548536E+01  (-0.3866190E+03)
 number of electron      12.0000000 magnetization
 augmentation part       12.0000000 magnetization

 Free energy of the ion-electron system (eV)
  alpha Z        PSCENC =        -0.81565505
  Ewald energy   TEWEN  =      -294.23109286
  -Hartree energ DENC   =        -0.40304679
  -exchange      EXHF   =         0.00000000
  -V(xc)+E(xc)   XCENC  =      -104.94661528
  PAW double counting   =       264.80062850     -136.98248303
  entropy T*S    EENTRO =        -0.00102602
  eigenvalues    EBANDS =        48.87813750
  atomic energy  EATOM  =       214.15261729
  Solvation  Ediel_sol  =         0.00000000
  free energy    TOTEN  =        -9.54853574 eV

  energy without entropy =       -9.54750972  energy(sigma->0) =       -9.54819373

[...]

 eigenvalue-minimisations  : 15552
 total energy-change (2. order) :-0.6345374E-08  (-0.6813813E-08)
 number of electron      12.0000000 magnetization
 augmentation part       -0.1481188 magnetization

 Broyden mixing:
  rms(total) = 0.26094E+00    rms(broyden)= 0.26094E+00
  rms(prec ) = 0.47074E+00
  weight for this iteration     100.00

[...]

 eigenvalue-minimisations  : 14080
 total energy-change (2. order) : 0.5206517E-01  (-0.4309943E-03)
 number of electron      12.0000000 magnetization
 augmentation part       -0.1501111 magnetization

[...]

 eigenvalues of (default mixing * dielectric matrix)
  average eigenvalue GAMMA=   2.3671
  2.3671

[...]

 Broyden mixing:
  rms(total) = 0.35561E-02    rms(broyden)= 0.35561E-02
  rms(prec ) = 0.35749E-02
  weight for this iteration     100.00

 eigenvalues of (default mixing * dielectric matrix)
  average eigenvalue GAMMA=   1.9823
  2.6389  2.5482  2.5482  0.9936  1.1826

[...]

--------------------------------------- Iteration      1(  11)  ---------------------------------------

 eigenvalue-minimisations  :  8269
 total energy-change (2. order) : 0.7130387E-07  (-0.4787744E-08)
 number of electron      12.0000000 magnetization
 augmentation part       -0.1546840 magnetization

 Free energy of the ion-electron system (eV)
  alpha Z        PSCENC =        -0.81565505
  Ewald energy   TEWEN  =      -294.23109286
  -Hartree energ DENC   =        -0.41929129
  -exchange      EXHF   =         0.00000000
  -V(xc)+E(xc)   XCENC  =      -104.50872879
  PAW double counting   =       565.86245417     -438.09522095
  entropy T*S    EENTRO =         0.00239188
  eigenvalues    EBANDS =        43.06535649
  atomic energy  EATOM  =       214.15261729
  Solvation  Ediel_sol  =         0.00000000
  free energy    TOTEN  =       -14.98716911 eV

  energy without entropy =      -14.98956099  energy(sigma->0) =      -14.98796641

 average (electrostatic) potential at core
  the test charge radii are     1.0406
  (the norm of the test charge is              1.0000)
       1 -72.6075       2 -72.6075       3 -72.6075       4 -72.6075

 E-fermi :   8.0334     XC(G=0): -10.2028     alpha+bet :-14.9019

 k-point     1 :       0.0250    0.0250    0.0250
  band No.  band energies     occupation
      1      -3.1112      2.00000
      2       4.9772      2.00000
      3       4.9772      2.00000
      4       4.9772      2.00000
      5       6.5617      2.00000
      6       6.5617      2.00000
      7       6.5617      2.00000
      8      12.8165     -0.00000
      9      12.8165     -0.00000
     10      12.8165     -0.00000
     11      13.6353      0.00000
     12      13.6353      0.00000
     13      13.6353      0.00000
     14      14.0128      0.00000
     15      14.0128      0.00000
     16      14.0128      0.00000
     17      17.2162      0.00000
     18      17.2162      0.00000
     19      17.2162      0.00000
     20      20.2090      0.00000
     21      20.5725      0.00000
     22      20.5725      0.00000
     23      22.2557      0.00000
     24      22.2557      0.00000
     25      22.3988      0.00000
     26      24.6797      0.00000
     27      27.3519      0.00000
     28      27.3519      0.00000
     29      30.2597      0.00000
     30      32.7765      0.00000
     31      32.8267      0.00000
     32      32.8277      0.00000

[...]

 k-point   220 :       0.4750    0.4750    0.4750
  band No.  band energies     occupation
      1       2.8820      2.00000
      2       3.3003      2.00000
      3       3.3003      2.00000
      4       3.3003      2.00000
      5       3.7864      2.00000
      6       3.7864      2.00000
      7       3.7864      2.00000
      8       4.2025      2.00000
      9      18.8829      0.00000
     10      18.8829      0.00000
     11      18.8829      0.00000
     12      18.8954      0.00000
     13      18.8954      0.00000
     14      18.8954      0.00000
     15      19.2858      0.00000
     16      19.2858      0.00000
     17      19.6789      0.00000
     18      19.6789      0.00000
     19      19.7543      0.00000
     20      19.7543      0.00000
     21      19.7543      0.00000
     22      20.0700      0.00000
     23      20.0700      0.00000
     24      20.0700      0.00000
     25      23.0117      0.00000
     26      23.3413      0.00000
     27      23.3413      0.00000
     28      23.3413      0.00000
     29      23.4884      0.00000
     30      23.4884      0.00000
     31      23.4884      0.00000
     32      23.4987      0.00000

 soft charge-density along one line, spin component           1
         0         1         2         3         4         5         6         7         8         9
 total charge-density along one line

------------------------ aborting loop because EDIFF is reached ----------------------------------------

  FORCE on cell =-STRESS in cart. coord.  units (eV):
  Direction    XX          YY          ZZ          XY          YZ          ZX
  Alpha Z    -0.81566    -0.81566    -0.81566
  Ewald     -98.07707   -98.07707   -98.07707    -0.00000     0.00000     0.00000
  Hartree     0.13975     0.13975     0.13975    -0.00000    -0.00000    -0.00000
  E(xc)     -34.27883   -34.27883   -34.27883     0.00000    -0.00000    -0.00000
  Local       1.41750     1.41750     1.41750    -0.00000     0.00000     0.00000
  n-local    74.42759    75.27148    77.19913     0.27888     1.04553     0.44694
  augment    -4.12578    -4.12578    -4.12578     0.00000     0.00000     0.00000
  Kinetic    57.14541    59.40827    63.76808     1.53654    -8.47816    -1.78235
  Fock        0.00000     0.00000     0.00000     0.00000     0.00000     0.00000
  Total      -0.00010    -0.00010    -0.00010    -0.00000    -0.00000    -0.00000
  in kB      -0.00233    -0.00233    -0.00233    -0.00000    -0.00000    -0.00000

 VOLUME and BASIS-vectors are now :
  energy-cutoff  :      400.00
  volume of cell :       65.89
      direct lattice vectors                 reciprocal lattice vectors
     4.038929693  0.000000000  0.000000000     0.247590346  0.000000000  0.000000000
    -0.000000000  4.038929693  0.000000000     0.000000000  0.247590346  0.000000000
     0.000000000  0.000000000  4.038929693    -0.000000000 -0.000000000  0.247590346

  length of vectors
     4.038929693  4.038929693  4.038929693     0.247590346  0.247590346  0.247590346

 FORCES acting on ions
    electron-ion (+dipol)            ewald-force                    non-local-force                 convergence-correction
   -.400E-14 0.444E-15 0.172E-14   0.971E-15 -.831E-16 -.393E-15   0.225E-26 -.646E-26 -.291E-25   0.222E-14 -.187E-16 0.580E-15
   -.386E-14 -.490E-14 -.670E-14   0.973E-15 -.153E-15 0.282E-15   -.160E-25 0.194E-25 0.646E-26   0.219E-14 0.363E-16 -.601E-15
   -.642E-14 -.635E-15 -.417E-13   -.100E-14 0.127E-15 0.293E-15   -.197E-25 -.404E-26 0.258E-25   -.225E-14 -.260E-16 -.608E-15
   -.631E-14 -.102E-13 0.192E-13   -.100E-14 0.566E-16 -.374E-15   0.116E-25 0.226E-25 0.323E-26   -.221E-14 0.154E-16 0.582E-15
   -.206E-13 -.153E-13 -.275E-13   -.599E-16 -.530E-16 -.192E-15   -.219E-25 0.315E-25 0.646E-26   -.457E-16 0.709E-17 -.472E-16

 POSITION                                       TOTAL-FORCE (eV/Angst)
      0.00000      0.00000      0.00000         0.000000     -0.000000      0.000000
     -0.00000      2.01946      2.01946        -0.000000      0.000000      0.000000
      2.01946      0.00000      2.01946         0.000000      0.000000     -0.000000
      2.01946      2.01946      0.00000        -0.000000     -0.000000     -0.000000
    total drift:                               -0.000000     -0.000000     -0.000000

  FREE ENERGIE OF THE ION-ELECTRON SYSTEM (eV)
  free  energy   TOTEN  =       -14.98716911 eV

  energy  without entropy=      -14.98956099  energy(sigma->0) =      -14.98796641

 reached required accuracy - stopping structural energy minimisation