 vasp.5.4.4.18Apr17-6-g9f103f2a35 (build Nov 07 2022 11:18:25) complex

 executed on             LinuxIFC date 2024.05.28  09:34:20

 INCAR:
 POTCAR:    PAW_PBE Al 04Jan2001

   TITEL  = PAW_PBE Al 04Jan2001
   POMASS =   26.981; ZVAL   =    3.000    mass and valenz
   ENMAX  =  240.300; ENMIN  =  180.225 eV

 Optimization of the real space projectors (new method)

 maximal supplied QI-value         = 19.84
 optimisation between [QCUT,QGAM] = [ 10.12, 20.44] = [ 28.68,116.96] Ry
 Optimized for a Real-space Cutoff    1.38 Angstroem

   l    n(q)    QCUT    max X(q) W(low)/X(q) W(high)/X(q)  e(spline)
   0      8    10.119   176.870    0.39E-04    0.93E-04    0.54E-07
   0      8    10.119   105.762    0.37E-04    0.91E-04    0.53E-07
   1      8    10.119    55.370    0.18E-03    0.13E-03    0.19E-06
   1      8    10.119    20.208    0.17E-03    0.12E-03    0.18E-06
  PAW_PBE Al 04Jan2001                  :

 POSCAR: Al5
  positions in direct lattice
 exchange correlation table for  LEXCH =        8
   RHO(1)=    0.500       N(1)  =     2000
   RHO(2)=  100.500       N(2)  =     4000

 ion  position               nearest neighbor table
   1  0.650  0.650  0.050-   2 2.86   2 2.86   2 2.86
   2  0.950  0.950  0.150-   1 2.86   3 2.86   1 2.86   3 2.86   3 2.86   1 2.86
   3  0.250  0.250  0.250-   2 2.86   4 2.86   4 2.86   2 2.86   2 2.86   4 2.86
   4  0.550  0.550  0.350-   5 2.86   3 2.86   5 2.86   3 2.86   3 2.86   5 2.86
   5  0.850  0.850  0.450-   4 2.86   4 2.86   4 2.86

  Warning from LATTYP: Got some problem with cell dimensions!
  Tried to take original basis but could not verify dimensions!
  LATTYP: Found a triclinic cell.
 ALAT       =     2.8559545748
 B/A-ratio  =     1.0000000000
 C/A-ratio  =     8.3066261767
 COS(alpha) =     0.1201762382
 COS(beta)  =     0.1807898865
 COS(gamma) =     0.5000000000

  Lattice vectors:

 A1 = (  -1.4306489030,   2.4717848308,   0.0000000000)
 A2 = (   1.4199724186,   2.4717848308,   0.1744551918)
 A3 = (  -0.0206764844,   4.9435696615, -23.2025405033)

Analysis of symmetry for initial positions (statically):
 Subroutine PRICEL returns:
 Original cell was already a primitive cell.

 Routine SETGRP: Setting up the symmetry group for a
 triclinic supercell.

 Subroutine GETGRP returns: Found  2 space group operations
 (whereof  1 operations were pure point group operations)
 out of a pool of  2 trial point group operations.

The static configuration has the point symmetry C_1 .
 The point group associated with its full space group is S_2 .

Analysis of symmetry for dynamics (positions and initial velocities):
 Subroutine PRICEL returns:
 Original cell was already a primitive cell.

 Routine SETGRP: Setting up the symmetry group for a
 triclinic supercell.

 Subroutine GETGRP returns: Found  2 space group operations
 (whereof  1 operations were pure point group operations)
 out of a pool of  2 trial point group operations.

The dynamic configuration has the point symmetry C_1 .
 The point group associated with its full space group is S_2 .

 Subroutine INISYM returns: Found  2 space group operations
 (whereof  1 operations are pure point group operations),
 and found     1 'primitive' translations

 KPOINTS: Automatic kpoint scheme

Automatic generation of k-mesh.
Space group operators:
 irot       det(A)        alpha          n_x          n_y          n_z        tau_x        tau_y        tau_z
    1     1.000000     0.000000     1.000000     0.000000     0.000000     0.000000     0.000000     0.000000
    2    -1.000000     0.000000     1.000000     0.000000     0.000000    -0.500000     1.500000    -0.500000

 Subroutine IBZKPT returns following result:

 Found   2048 irreducible k-points:

 Following reciprocal coordinates:
            Coordinates               Weight
  0.015625  0.015625  0.125000      2.000000
  0.046875  0.015625  0.125000      2.000000
  0.078125  0.015625  0.125000      2.000000
  0.109375  0.015625  0.125000      2.000000
  0.140625  0.015625  0.125000      2.000000
  0.171875  0.015625  0.125000      2.000000
  0.203125  0.015625  0.125000      2.000000
  0.234375  0.015625  0.125000      2.000000
  0.265625  0.015625  0.125000      2.000000
  0.296875  0.015625  0.125000      2.000000
  0.328125  0.015625  0.125000      2.000000
  0.359375  0.015625  0.125000      2.000000
  0.390625  0.015625  0.125000      2.000000
  0.421875  0.015625  0.125000      2.000000
  0.453125  0.015625  0.125000      2.000000
  0.484375  0.015625  0.125000      2.000000
 -0.484375  0.015625  0.125000      2.000000
 -0.453125  0.015625  0.125000      2.000000
 -0.421875  0.015625  0.125000      2.000000
 -0.390625  0.015625  0.125000      2.000000
 -0.359375  0.015625  0.125000      2.000000
 -0.328125  0.015625  0.125000      2.000000
 -0.296875  0.015625  0.125000      2.000000
 -0.265625  0.015625  0.125000      2.000000
 -0.234375  0.015625  0.125000      2.000000
 -0.203125  0.015625  0.125000      2.000000
 -0.171875  0.015625  0.125000      2.000000
 -0.140625  0.015625  0.125000      2.000000
 -0.109375  0.015625  0.125000      2.000000
 -0.078125  0.015625  0.125000      2.000000
 -0.046875  0.015625  0.125000      2.000000
 -0.015625  0.015625  0.125000      2.000000
  0.015625  0.046875  0.125000      2.000000
  0.046875  0.046875  0.125000      2.000000
  0.078125  0.046875  0.125000      2.000000
  0.109375  0.046875  0.125000      2.000000
  0.140625  0.046875  0.125000      2.000000
  0.171875  0.046875  0.125000      2.000000
  0.203125  0.046875  0.125000      2.000000
  0.234375  0.046875  0.125000      2.000000
  0.265625  0.046875  0.125000      2.000000
  0.296875  0.046875  0.125000      2.000000
  0.328125  0.046875  0.125000      2.000000
  0.359375  0.046875  0.125000      2.000000
  0.390625  0.046875  0.125000      2.000000
  0.421875  0.046875  0.125000      2.000000
  0.453125  0.046875  0.125000      2.000000
  0.484375  0.046875  0.125000      2.000000
 -0.484375  0.046875  0.125000      2.000000
 -0.453125  0.046875  0.125000      2.000000
 -0.421875  0.046875  0.125000      2.000000
 -0.390625  0.046875  0.125000      2.000000
 -0.359375  0.046875  0.125000      2.000000
 -0.328125  0.046875  0.125000      2.000000
 -0.296875  0.046875  0.125000      2.000000
 -0.265625  0.046875  0.125000      2.000000
 -0.234375  0.046875  0.125000      2.000000
 -0.203125  0.046875  0.125000      2.000000
 -0.171875  0.046875  0.125000      2.000000
 -0.140625  0.046875  0.125000      2.000000
[...]
 -0.453125 -0.015625  0.375000      2.000000
 -0.421875 -0.015625  0.375000      2.000000
 -0.390625 -0.015625  0.375000      2.000000
 -0.359375 -0.015625  0.375000      2.000000
 -0.328125 -0.015625  0.375000      2.000000
 -0.296875 -0.015625  0.375000      2.000000
 -0.265625 -0.015625  0.375000      2.000000
 -0.234375 -0.015625  0.375000      2.000000
 -0.203125 -0.015625  0.375000      2.000000
 -0.171875 -0.015625  0.375000      2.000000
 -0.140625 -0.015625  0.375000      2.000000
 -0.109375 -0.015625  0.375000      2.000000
 -0.078125 -0.015625  0.375000      2.000000
 -0.046875 -0.015625  0.375000      2.000000
 -0.015625 -0.015625  0.375000      2.000000

 Following cartesian coordinates:
            Coordinates               Weight
  0.005154  0.002983  0.005345      2.000000
  0.016117 -0.003314  0.005340      2.000000
  0.027080 -0.009612  0.005336      2.000000
  0.038043 -0.015909  0.005331      2.000000
  0.049005 -0.022207  0.005326      2.000000
  0.059968 -0.028504  0.005321      2.000000
  0.070931 -0.034802  0.005317      2.000000
  0.081894 -0.041099  0.005312      2.000000
  0.092857 -0.047397  0.005307      2.000000
  0.103819 -0.053694  0.005303      2.000000
  0.114782 -0.059992  0.005298      2.000000
  0.125745 -0.066289  0.005293      2.000000
  0.136708 -0.072587  0.005289      2.000000
  0.147671 -0.078884  0.005284      2.000000
  0.158633 -0.085182  0.005279      2.000000
  0.169596 -0.091479  0.005275      2.000000
 -0.170251  0.103743  0.005420      2.000000
 -0.159288  0.097446  0.005415      2.000000
 -0.148325  0.091148  0.005411      2.000000
 -0.137362  0.084851  0.005406      2.000000
 -0.126400  0.078553  0.005401      2.000000
 -0.115437  0.072256  0.005397      2.000000
 -0.104474  0.065958  0.005392      2.000000
 -0.093511  0.059661  0.005387      2.000000
 -0.082548  0.053363  0.005382      2.000000
 -0.071586  0.047066  0.005378      2.000000
 -0.060623  0.040768  0.005373      2.000000
 -0.049660  0.034471  0.005368      2.000000
 -0.038697  0.028173  0.005364      2.000000
 -0.027734  0.021876  0.005359      2.000000
 -0.016771  0.015578  0.005354      2.000000
 -0.005809  0.009281  0.005350      2.000000
  0.005154  0.015626  0.005345      2.000000
  0.016117  0.009328  0.005340      2.000000
  0.027080  0.003031  0.005336      2.000000
  0.038043 -0.003267  0.005331      2.000000
  0.049005 -0.009564  0.005326      2.000000
  0.059968 -0.015862  0.005321      2.000000
  0.070931 -0.022159  0.005317      2.000000
  0.081894 -0.028457  0.005312      2.000000
  0.092857 -0.034754  0.005307      2.000000
  0.103819 -0.041052  0.005303      2.000000
  0.114782 -0.047349  0.005298      2.000000
  0.125745 -0.053647  0.005293      2.000000
  0.136708 -0.059944  0.005289      2.000000
  0.147671 -0.066242  0.005284      2.000000
  0.158633 -0.072539  0.005279      2.000000
  0.169596 -0.078837  0.005275      2.000000
 -0.170251  0.116386  0.005420      2.000000
 -0.159288  0.110088  0.005415      2.000000
 -0.148325  0.103791  0.005411      2.000000
 -0.137362  0.097493  0.005406      2.000000
 -0.126400  0.091196  0.005401      2.000000
 -0.115437  0.084898  0.005397      2.000000
 -0.104474  0.078601  0.005392      2.000000
 -0.093511  0.072303  0.005387      2.000000
 -0.082548  0.066006  0.005382      2.000000
 -0.071586  0.059708  0.005378      2.000000
 -0.060623  0.053411  0.005373      2.000000
 -0.049660  0.047113  0.005368      2.000000
[...]
 -0.159942  0.084424  0.016110      2.000000
 -0.148980  0.078127  0.016105      2.000000
 -0.138017  0.071829  0.016100      2.000000
 -0.127054  0.065532  0.016096      2.000000
 -0.116091  0.059234  0.016091      2.000000
 -0.105128  0.052937  0.016086      2.000000
 -0.094166  0.046639  0.016082      2.000000
 -0.083203  0.040342  0.016077      2.000000
 -0.072240  0.034044  0.016072      2.000000
 -0.061277  0.027747  0.016068      2.000000
 -0.050314  0.021449  0.016063      2.000000
 -0.039352  0.015152  0.016058      2.000000
 -0.028389  0.008854  0.016054      2.000000
 -0.017426  0.002557  0.016049      2.000000
 -0.006463 -0.003741  0.016044      2.000000

 SYSTEM =  Al fcc relaxation
 POSCAR =  Al5

 Startparameter for this run:
   NWRITE =      2    write-flag & timer
   PREC   = accura    normal or accurate (medium, high low for compatibility)
   ISTART =      0    job   : 0-new  1-cont  2-samecut
   ICHARG =      2    charge: 1-file 2-atom 10-const
   ISPIN  =      1    spin polarized calculation?
   LNONCOLLINEAR =      F non collinear calculations
   LSORBIT =      F    spin-orbit coupling
   INIWAV =      1    electr: 0-lowe 1-rand  2-diag
   LASPH  =      F    aspherical Exc in radial PAW
[...]
 k-point 38 :   0.1719 0.0469 0.1250  plane waves:    3007
 k-point 39 :   0.2031 0.0469 0.1250  plane waves:    3012
 k-point 40 :   0.2344 0.0469 0.1250  plane waves:    3005
 k-point 41 :   0.2656 0.0469 0.1250  plane waves:    3007
 k-point 42 :   0.2969 0.0469 0.1250  plane waves:    3010
 k-point 43 :   0.3281 0.0469 0.1250  plane waves:    2996
 k-point 44 :   0.3594 0.0469 0.1250  plane waves:    2989
 k-point 45 :   0.3906 0.0469 0.1250  plane waves:    2987
 k-point 46 :   0.4219 0.0469 0.1250  plane waves:    2994
 k-point 47 :   0.4531 0.0469 0.1250  plane waves:    2992
 k-point 48 :   0.4844 0.0469 0.1250  plane waves:    2989
 k-point 49 :  -0.4844 0.0469 0.1250  plane waves:    2992
 k-point 50 :  -0.4531 0.0469 0.1250  plane waves:    2991
 k-point 51 :  -0.4219 0.0469 0.1250  plane waves:    2991
 k-point 52 :  -0.3906 0.0469 0.1250  plane waves:    2996
 k-point 53 :  -0.3594 0.0469 0.1250  plane waves:    2995
 k-point 54 :  -0.3281 0.0469 0.1250  plane waves:    2999
 k-point 55 :  -0.2969 0.0469 0.1250  plane waves:    2995
 k-point 56 :  -0.2656 0.0469 0.1250  plane waves:    2996
 k-point 57 :  -0.2344 0.0469 0.1250  plane waves:    3004
 k-point 58 :  -0.2031 0.0469 0.1250  plane waves:    3011
 k-point 59 :  -0.1719 0.0469 0.1250  plane waves:    3010
 k-point 60 :  -0.1406 0.0469 0.1250  plane waves:    3004
[...]
 k-point 85 :  -0.3594 0.0781 0.1250  plane waves:    3000
 k-point 86 :  -0.3281 0.0781 0.1250  plane waves:    2997
 k-point 87 :  -0.2969 0.0781 0.1250  plane waves:    2999
 k-point 88 :  -0.2656 0.0781 0.1250  plane waves:    3000
 k-point 89 :  -0.2344 0.0781 0.1250  plane waves:    3007
 k-point 90 :  -0.2031 0.0781 0.1250  plane waves:    3004
 k-point 91 :  -0.1719 0.0781 0.1250  plane waves:    3006
 k-point 92 :  -0.1406 0.0781 0.1250  plane waves:    3003
 k-point 93 :  -0.1094 0.0781 0.1250  plane waves:    3011
 k-point 94 :  -0.0781 0.0781 0.1250  plane waves:    3016
 k-point 95 :  -0.0469 0.0781 0.1250  plane waves:    3013
 k-point 96 :  -0.0156 0.0781 0.1250  plane waves:    3006
 k-point 97 :   0.0156 0.1094 0.1250  plane waves:    3006
 k-point 98 :   0.0469 0.1094 0.1250  plane waves:    3015
 k-point 99 :   0.0781 0.1094 0.1250  plane waves:    3013
 k-point ** :   0.1094 0.1094 0.1250  plane waves:    3007
 k-point ** :   0.1406 0.1094 0.1250  plane waves:    3007
 k-point ** :   0.1719 0.1094 0.1250  plane waves:    3008
 k-point ** :   0.2031 0.1094 0.1250  plane waves:    3007
 k-point ** :   0.2344 0.1094 0.1250  plane waves:    3012
 k-point ** :   0.2656 0.1094 0.1250  plane waves:    3008
 k-point ** :   0.2969 0.1094 0.1250  plane waves:    2997
 k-point ** :   0.3281 0.1094 0.1250  plane waves:    2995
 k-point ** :   0.3594 0.1094 0.1250  plane waves:    2990
 k-point ** :   0.3906 0.1094 0.1250  plane waves:    2995
 k-point ** :   0.4219 0.1094 0.1250  plane waves:    2995
 k-point ** :   0.4531 0.1094 0.1250  plane waves:    2989
 k-point ** :   0.4844 0.1094 0.1250  plane waves:    2987
 k-point ** :  -0.4844 0.1094 0.1250  plane waves:    2983
 k-point ** :  -0.4531 0.1094 0.1250  plane waves:    2979
 k-point ** :  -0.4219 0.1094 0.1250  plane waves:    2983
 k-point ** :  -0.3906 0.1094 0.1250  plane waves:    2988
 k-point ** :  -0.3594 0.1094 0.1250  plane waves:    2995
 k-point ** :  -0.3281 0.1094 0.1250  plane waves:    2994
 k-point ** :  -0.2969 0.1094 0.1250  plane waves:    2997
 k-point ** :  -0.2656 0.1094 0.1250  plane waves:    2995
 k-point ** :  -0.2344 0.1094 0.1250  plane waves:    2995
 k-point ** :  -0.2031 0.1094 0.1250  plane waves:    3000
 k-point ** :  -0.1719 0.1094 0.1250  plane waves:    3000
 k-point ** :  -0.1406 0.1094 0.1250  plane waves:    3015
 k-point ** :  -0.1094 0.1094 0.1250  plane waves:    3007
 k-point ** :  -0.0781 0.1094 0.1250  plane waves:    3013
 k-point ** :  -0.0469 0.1094 0.1250  plane waves:    3008
 k-point ** :  -0.0156 0.1094 0.1250  plane waves:    3005
 k-point ** :   0.0156 0.1406 0.1250  plane waves:    3012
 k-point ** :   0.0469 0.1406 0.1250  plane waves:    3012
 k-point ** :   0.0781 0.1406 0.1250  plane waves:    3016
 k-point ** :   0.1094 0.1406 0.1250  plane waves:    3007
 k-point ** :   0.1406 0.1406 0.1250  plane waves:    3013
 k-point ** :   0.1719 0.1406 0.1250  plane waves:    3006
 k-point ** :   0.2031 0.1406 0.1250  plane waves:    3012
 k-point ** :   0.2344 0.1406 0.1250  plane waves:    3013
 k-point ** :   0.2656 0.1406 0.1250  plane waves:    3013
 k-point ** :   0.2969 0.1406 0.1250  plane waves:    3003
 k-point ** :   0.3281 0.1406 0.1250  plane waves:    2990
 k-point ** :   0.3594 0.1406 0.1250  plane waves:    2993
 k-point ** :   0.3906 0.1406 0.1250  plane waves:    2990
 k-point ** :   0.4219 0.1406 0.1250  plane waves:    2998
 k-point ** :   0.4531 0.1406 0.1250  plane waves:    2994
 k-point ** :   0.4844 0.1406 0.1250  plane waves:    2987
 k-point ** :  -0.4844 0.1406 0.1250  plane waves:    2979
 k-point ** :  -0.4531 0.1406 0.1250  plane waves:    2971
 k-point ** :  -0.4219 0.1406 0.1250  plane waves:    2969
 k-point ** :  -0.3906 0.1406 0.1250  plane waves:    2981
 k-point ** :  -0.3594 0.1406 0.1250  plane waves:    2985
 k-point ** :  -0.3281 0.1406 0.1250  plane waves:    2986
 k-point ** :  -0.2969 0.1406 0.1250  plane waves:    3000
 k-point ** :  -0.2656 0.1406 0.1250  plane waves:    3004
 k-point ** :  -0.2344 0.1406 0.1250  plane waves:    2989
 k-point ** :  -0.2031 0.1406 0.1250  plane waves:    2998
 k-point ** :  -0.1719 0.1406 0.1250  plane waves:    2997
 k-point ** :  -0.1406 0.1406 0.1250  plane waves:    3012
 k-point ** :  -0.1094 0.1406 0.1250  plane waves:    3010
 k-point ** :  -0.0781 0.1406 0.1250  plane waves:    3010
 k-point ** :  -0.0469 0.1406 0.1250  plane waves:    3009
[...]
 k-point ** :  -0.4531-0.0156 0.3750  plane waves:    2987
 k-point ** :  -0.4219-0.0156 0.3750  plane waves:    2993
 k-point ** :  -0.3906-0.0156 0.3750  plane waves:    2995
 k-point ** :  -0.3594-0.0156 0.3750  plane waves:    2987
 k-point ** :  -0.3281-0.0156 0.3750  plane waves:    2992
 k-point ** :  -0.2969-0.0156 0.3750  plane waves:    3003
 k-point ** :  -0.2656-0.0156 0.3750  plane waves:    3005
 k-point ** :  -0.2344-0.0156 0.3750  plane waves:    3008
 k-point ** :  -0.2031-0.0156 0.3750  plane waves:    3011
 k-point ** :  -0.1719-0.0156 0.3750  plane waves:    3013
 k-point ** :  -0.1406-0.0156 0.3750  plane waves:    3010
 k-point ** :  -0.1094-0.0156 0.3750  plane waves:    3011
 k-point ** :  -0.0781-0.0156 0.3750  plane waves:    3013
 k-point ** :  -0.0469-0.0156 0.3750  plane waves:    3013
 k-point ** :  -0.0156-0.0156 0.3750  plane waves:    3013

 maximum and minimum number of plane-waves per node :      3027     2917

 maximum number of plane-waves:      3027
 maximum index in each direction:
   IXMAX=    5   IYMAX=    5   IZMAX=   37
   IXMIN=   -5   IYMIN=   -5   IZMIN=  -38

 serial   3D FFT for wavefunctions
 parallel 3D FFT for charge:
    minimum data exchange during FFTs selected (reduces bandwidth)

 Broyden mixing: mesh for mixing (old mesh)
   NGX =  9   NGY =  9   NGZ = 77
  (NGX  = 40   NGY  = 40   NGZ  =320)
  gives a total of   6237 points

 initial charge density was supplied:
 charge density of overlapping atoms calculated
 number of electron      15.0000000 magnetization
 keeping initial charge density in first step

 Maximum index for non-local projection operator         4137
 Maximum index for augmentation-charges         1217 (set IRDMAX)

 First call to EWALD:  gamma=   0.323
 Maximum number of real-space cells 5x 5x 1
 Maximum number of reciprocal cells 2x 2x10

--------------------------------------- Iteration      1(   1)  ---------------------------------------

 eigenvalue-minimisations  :131072
 total energy-change (2. order) :-0.3123677E+01  (-0.4751744E+03)
 number of electron      15.0000000 magnetization
 augmentation part       15.0000000 magnetization

 Free energy of the ion-electron system (eV)
  alpha Z        PSCENC =        -0.50979775
  Ewald energy   TEWEN  =      1088.60344044
  -Hartree energ DENC   =     -1349.30840795
  -exchange      EXHF   =         0.00000000
  -V(xc)+E(xc)   XCENC  =      -132.02628256
  PAW double counting   =       331.00078563     -171.22810378
  entropy T*S    EENTRO =        -0.00058883
  eigenvalues    EBANDS =       -37.34549365
  atomic energy  EATOM  =       267.69077161
  Solvation  Ediel_sol  =         0.00000000
  free energy    TOTEN  =        -3.12367684 eV

  energy without entropy =       -3.12308801  energy(sigma->0) =       -3.12348056

[...]

 Broyden mixing:
  rms(total) = 0.31698E+00    rms(broyden)= 0.31698E+00
  rms(prec ) = 0.44577E+00
  weight for this iteration     100.00

[...]

 eigenvalue-minimisations  :147152
 total energy-change (2. order) : 0.3853676E+00  (-0.2881579E-02)
 number of electron      15.0000000 magnetization
 augmentation part       -0.1980979 magnetization

[...]

 eigenvalues of (default mixing * dielectric matrix)
  average eigenvalue GAMMA=   1.3090
  1.3090

[...]

 eigenvalue-minimisations  :156730
 total energy-change (2. order) : 0.7752462E-04  (-0.5616224E-05)
 number of electron      15.0000000 magnetization
 augmentation part       -0.2026456 magnetization

[...]

 Broyden mixing:
  rms(total) = 0.21330E-04    rms(broyden)= 0.21330E-04
  rms(prec ) = 0.24505E-04
  weight for this iteration     100.00

 eigenvalues of (default mixing * dielectric matrix)
  average eigenvalue GAMMA=   2.4798
  8.9460  5.2745  3.4177  2.5967  2.5967  2.0823  0.5232  1.4843  1.3731  1.0876
  1.0180  0.9308  0.9060

[...]

--------------------------------------- Iteration      1(  19)  ---------------------------------------

 eigenvalue-minimisations  :115419
 total energy-change (2. order) :-0.3109993E-06  (-0.1531929E-08)
 number of electron      15.0000000 magnetization
 augmentation part       -0.2026654 magnetization

 Free energy of the ion-electron system (eV)
  alpha Z        PSCENC =        -0.50979775
  Ewald energy   TEWEN  =      1088.60344044
  -Hartree energ DENC   =     -1368.88521941
  -exchange      EXHF   =         0.00000000
  -V(xc)+E(xc)   XCENC  =      -131.39036453
  PAW double counting   =       670.05308099     -510.33803740
  entropy T*S    EENTRO =         0.00097505
  eigenvalues    EBANDS =       -33.21741486
  atomic energy  EATOM  =       267.69077161
  Solvation  Ediel_sol  =         0.00000000
  free energy    TOTEN  =       -17.99256587 eV

  energy without entropy =      -17.99354091  energy(sigma->0) =      -17.99289088

 average (electrostatic) potential at core
  the test charge radii are     1.0406
  (the norm of the test charge is              1.0000)
       1 -78.6703       2 -78.5989       3 -78.5993       4 -78.5989       5 -78.6703

 E-fermi :   2.0063     XC(G=0):  -5.8978     alpha+bet : -7.4511

 k-point     1 :       0.0156    0.0156    0.1250
  band No.  band energies     occupation
      1      -8.8902      2.00000
      2      -8.1950      2.00000
      3      -7.0670      2.00000
      4      -5.5355      2.00000
      5      -3.6173      2.00000
      6      -1.5761      2.00000
      7       0.8570      2.00000
      8       3.2352     -0.00000
      9       5.0436     -0.00000
     10       6.0488     -0.00000
     11       6.4680     -0.00000
     12       8.1075      0.00000
     13       8.7282      0.00000
     14      10.9895      0.00000
     15      11.7375      0.00000
     16      12.6147      0.00000
     17      12.6755      0.00000
     18      13.1917      0.00000
     19      13.2480      0.00000
     20      13.2512      0.00000
     21      13.3200      0.00000
     22      13.8222      0.00000
     23      13.8950      0.00000
     24      14.0689      0.00000
     25      14.1528      0.00000
     26      14.2420      0.00000
     27      14.8066      0.00000
     28      14.8644      0.00000
     29      15.5680      0.00000
     30      15.6217      0.00000
     31      16.4861      0.00000
     32      16.5709      0.00000

[...]

 k-point  2048 :      -0.0156   -0.0156    0.3750
  band No.  band energies     occupation
      1      -8.8902      2.00000
      2      -8.1950      2.00000
      3      -7.0670      2.00000
      4      -5.5355      2.00000
      5      -3.6173      2.00000
      6      -1.5761      2.00000
      7       0.8570      2.00000
      8       3.2340     -0.00000
      9       5.0878     -0.00000
     10       5.8089     -0.00000
     11       6.9564     -0.00000
     12       7.4678      0.00000
     13       9.4773      0.00000
     14      10.1536      0.00000
     15      12.6146      0.00000
     16      12.6268      0.00000
     17      12.6756      0.00000
     18      13.1939      0.00000
     19      13.2481      0.00000
     20      13.2512      0.00000
     21      13.3200      0.00000
     22      13.4016      0.00000
     23      13.8249      0.00000
     24      13.8951      0.00000
     25      14.0877      0.00000
     26      14.1529      0.00000
     27      14.7928      0.00000
     28      14.8645      0.00000
     29      15.5668      0.00000
     30      15.6219      0.00000
     31      16.4682      0.00000
     32      16.5746      0.00000

 soft charge-density along one line, spin component           1
         0         1         2         3         4         5         6         7         8         9
 total charge-density along one line

------------------------ aborting loop because EDIFF is reached ----------------------------------------

  FORCE on cell =-STRESS in cart. coord.  units (eV):
  Direction    XX          YY          ZZ          XY          YZ          ZX
  Alpha Z    -0.50980    -0.50980    -0.50980
  Ewald    1321.71153  1328.91949 -1562.02778    -6.28529   102.52963   177.13439
  Hartree  1358.35937  1365.14202 -1354.61683    -5.90353    96.45901   166.65601
  E(xc)     -42.14749   -42.14666   -42.25927    -0.00052     0.00408     0.00754
  Local   -2801.06767 -2815.05213  2796.79126    12.18266  -199.02795  -343.85728
  n-local    95.87412    95.87380    93.95257    -0.00198     0.06656     0.10950
  augment    -5.42639    -5.42668    -5.36484     0.00034    -0.00208    -0.00329
  Kinetic    71.87332    71.89220    74.61524    -0.01547    -0.09748    -0.16958
  Fock        0.00000     0.00000     0.00000     0.00000     0.00000     0.00000
  Total      -1.33301    -1.30775     0.58055    -0.02378    -0.06823    -0.12271
  in kB     -12.96626   -12.72056     5.64704    -0.23127    -0.66364    -1.19365

 VOLUME and BASIS-vectors are now :
  energy-cutoff  :      400.00
  volume of cell :      164.71
      direct lattice vectors                 reciprocal lattice vectors
     2.850621322  0.000000000  0.174455192     0.350809900 -0.201520050 -0.000150066
     1.419972419  2.471784831  0.174455192     0.000000000  0.404565959  0.000000000
     0.010000000  0.000000000 23.376995695    -0.002617984 -0.001515268  0.042778216

  length of vectors
     2.855954575  2.855954575 23.376997834     0.404571302  0.404565959  0.042885029

 FORCES acting on ions
    electron-ion (+dipol)            ewald-force                    non-local-force                 convergence-correction
   -.141E+02 -.816E+01 0.230E+03   0.140E+02 0.811E+01 -.229E+03   0.884E-01 0.505E-01 -.139E+01   -.106E-05 -.616E-06 0.175E-04
   -.703E+01 -.407E+01 0.115E+03   0.704E+01 0.407E+01 -.115E+03   -.107E-01 -.616E-02 0.108E+00   0.273E-05 0.158E-05 -.443E-04
   0.325E-14 0.547E-14 0.711E-14   -.266E-14 0.444E-15 0.000E+00   -.191E-24 0.000E+00 0.000E+00   -.826E-15 -.542E-15 0.144E-13
   0.703E+01 0.407E+01 -.115E+03   -.704E+01 -.407E+01 0.115E+03   0.107E-01 0.616E-02 -.108E+00   -.273E-05 -.158E-05 0.443E-04
   0.141E+02 0.816E+01 -.230E+03   -.140E+02 -.811E+01 0.229E+03   -.884E-01 -.505E-01 0.139E+01   0.106E-05 0.616E-06 -.175E-04
   0.294E-13 0.625E-13 -.591E-14   -.888E-14 -.178E-14 0.284E-13   0.139E-16 0.000E+00 0.000E+00   -.508E-14 -.296E-14 0.830E-13

 POSITION                                       TOTAL-FORCE (eV/Angst)
      2.77639      1.60666      1.39564         0.006571      0.003504     -0.097759
      4.05856      2.34820      3.83801        -0.004394     -0.002575      0.066332
      1.07015      0.61795      5.93148         0.000000      0.000000      0.000000
      2.35233      1.35948      8.37385         0.004394      0.002575     -0.066332
      3.63450      2.10102     10.81622        -0.006571     -0.003504      0.097759
    total drift:                                0.000000      0.000000      0.000000

  FREE ENERGIE OF THE ION-ELECTRON SYSTEM (eV)
  free  energy   TOTEN  =       -17.99256587 eV

  energy  without entropy=      -17.99354091  energy(sigma->0) =      -17.99289088