 vasp.5.4.4.18Apr17-6-g9f103f2a35 (build Nov 07 2022 11:18:25) complex

 executed on             LinuxIFC date 2024.05.28  10:12:37

 INCAR:
 POTCAR:    PAW_PBE Al 04Jan2001

   TITEL  = PAW_PBE Al 04Jan2001
   POMASS =   26.981; ZVAL   =    3.000    mass and valenz
   ENMAX  =  240.300; ENMIN  =  180.225 eV

 Optimization of the real space projectors (new method)

 maximal supplied QI-value         = 19.84
 optimisation between [QCUT,QGAM] = [ 10.12, 20.44] = [ 28.68,116.96] Ry
 Optimized for a Real-space Cutoff    1.38 Angstroem

   l    n(q)    QCUT    max X(q) W(low)/X(q) W(high)/X(q)  e(spline)
   0      8    10.119   176.870    0.39E-04    0.93E-04    0.54E-07
   0      8    10.119   105.762    0.37E-04    0.91E-04    0.53E-07
   1      8    10.119    55.370    0.18E-03    0.13E-03    0.19E-06
   1      8    10.119    20.208    0.17E-03    0.12E-03    0.18E-06
  PAW_PBE Al 04Jan2001                  :

 POSCAR: Al12
  positions in direct lattice
 exchange correlation table for  LEXCH =        8
   RHO(1)=    0.500       N(1)  =     2000
   RHO(2)=  100.500       N(2)  =     4000

 ion  position               nearest neighbor table
   1  0.446  0.161  0.946-   2 2.86   4 2.86   3 2.86   7 2.86   3 2.86   4 2.86   4 2.86   3 2.86
                             2 2.86
   2  0.875  0.375  0.875-   1 2.86   5 2.86   7 2.86   4 2.86   8 2.86   3 2.86   4 2.86   7 2.86
                             7 2.86   4 2.86   1 2.86   5 2.86
   3  0.732  0.554  0.982-   4 2.86   1 2.86   2 2.86   1 2.86   1 2.86   4 2.86
   4  0.161  0.768  0.911-   7 2.86   3 2.86   1 2.86   2 2.86   5 2.86   2 2.86   1 2.86   1 2.86
                             2 2.86   3 2.86   7 2.86
   5  0.304  0.589  0.804-   2 2.86   6 2.86   7 2.86   8 2.86   4 2.86  11 2.86   8 2.86   7 2.86
                             7 2.86   8 2.86   2 2.86   6 2.86
   6  0.732  0.804  0.732-   9 2.86   5 2.86  11 2.86   8 2.86  12 2.86   7 2.86  11 2.86   8 2.86
                            11 2.86   8 2.86   9 2.86   5 2.86
   7  0.589  0.982  0.839-   4 2.86   8 2.86   5 2.86   2 2.86   1 2.86   6 2.86   2 2.86   5 2.86
                             5 2.86   2 2.86   4 2.86   8 2.86
   8  0.018  0.196  0.768-   7 2.86  11 2.86   5 2.86   6 2.86   2 2.86   9 2.86   5 2.86   6 2.86
                             5 2.86   6 2.86   7 2.86  11 2.86
   9  0.161  0.018  0.661-  10 2.86   6 2.86  11 2.86  12 2.86   8 2.86  12 2.86  11 2.86  11 2.86
                            12 2.86  10 2.86   6 2.86
  10  0.589  0.232  0.589-   9 2.86  12 2.86  11 2.86  12 2.86  12 2.86   9 2.86
  11  0.446  0.411  0.696-  12 2.86   8 2.86   9 2.86   6 2.86  10 2.86   5 2.86   6 2.86   9 2.86
                             9 2.86   6 2.86  12 2.86   8 2.86
  12  0.875  0.625  0.625-  11 2.86  10 2.86   9 2.86   6 2.86   9 2.86  10 2.86  10 2.86   9 2.86
                            11 2.86

  Warning from LATTYP: Got some problem with cell dimensions!
  Tried to take original basis but could not verify dimensions!
  LATTYP: Found a triclinic cell.
 ALAT       =     4.9466584276
 B/A-ratio  =     0.8164965809
 C/A-ratio  =     5.2279710758
 COS(alpha) =     0.0003854572
 COS(beta)  =     0.1914351535
 COS(gamma) =     0.4082482905

  Lattice vectors:

 A1 = (  -2.0002419274,  -4.5127835416,  -0.3213199938)
 A2 = (  -4.0261279821,   0.0000000000,  -0.3213199938)
 A3 = (   2.0158860547,  -4.5127835416, -25.3842795077)

Analysis of symmetry for initial positions (statically):
 Subroutine PRICEL returns:
 Original cell was already a primitive cell.

 Routine SETGRP: Setting up the symmetry group for a
 triclinic supercell.

 Subroutine GETGRP returns: Found  2 space group operations
 (whereof  1 operations were pure point group operations)
 out of a pool of  2 trial point group operations.

The static configuration has the point symmetry C_1 .
 The point group associated with its full space group is S_2 .

Analysis of symmetry for dynamics (positions and initial velocities):
 Subroutine PRICEL returns:
 Original cell was already a primitive cell.

 Routine SETGRP: Setting up the symmetry group for a
 triclinic supercell.

 Subroutine GETGRP returns: Found  2 space group operations
 (whereof  1 operations were pure point group operations)
 out of a pool of  2 trial point group operations.

The dynamic configuration has the point symmetry C_1 .
 The point group associated with its full space group is S_2 .

 Subroutine INISYM returns: Found  2 space group operations
 (whereof  1 operations are pure point group operations),
 and found     1 'primitive' translations

 KPOINTS: Automatic kpoint scheme

Automatic generation of k-mesh.
Space group operators:
 irot       det(A)        alpha          n_x          n_y          n_z        tau_x        tau_y        tau_z
    1     1.000000     0.000000     1.000000     0.000000     0.000000     0.000000     0.000000     0.000000
    2    -1.000000     0.000000     1.000000     0.000000     0.000000     0.321429    -1.214286    -0.428571

 Subroutine IBZKPT returns following result:

 Found    792 irreducible k-points:

 Following reciprocal coordinates:
            Coordinates               Weight
  0.022727  0.027778  0.125000      2.000000
  0.068182  0.027778  0.125000      2.000000
  0.113636  0.027778  0.125000      2.000000
  0.159091  0.027778  0.125000      2.000000
  0.204545  0.027778  0.125000      2.000000
  0.250000  0.027778  0.125000      2.000000
  0.295455  0.027778  0.125000      2.000000
  0.340909  0.027778  0.125000      2.000000
  0.386364  0.027778  0.125000      2.000000
  0.431818  0.027778  0.125000      2.000000
  0.477273  0.027778  0.125000      2.000000
 -0.477273  0.027778  0.125000      2.000000
 -0.431818  0.027778  0.125000      2.000000
 -0.386364  0.027778  0.125000      2.000000
 -0.340909  0.027778  0.125000      2.000000
 -0.295455  0.027778  0.125000      2.000000
 -0.250000  0.027778  0.125000      2.000000
 -0.204545  0.027778  0.125000      2.000000
 -0.159091  0.027778  0.125000      2.000000
 -0.113636  0.027778  0.125000      2.000000
 -0.068182  0.027778  0.125000      2.000000
 -0.022727  0.027778  0.125000      2.000000
  0.022727  0.083333  0.125000      2.000000
  0.068182  0.083333  0.125000      2.000000
  0.113636  0.083333  0.125000      2.000000
  0.159091  0.083333  0.125000      2.000000
  0.204545  0.083333  0.125000      2.000000
  0.250000  0.083333  0.125000      2.000000
  0.295455  0.083333  0.125000      2.000000
  0.340909  0.083333  0.125000      2.000000
  0.386364  0.083333  0.125000      2.000000
  0.431818  0.083333  0.125000      2.000000
  0.477273  0.083333  0.125000      2.000000
 -0.477273  0.083333  0.125000      2.000000
 -0.431818  0.083333  0.125000      2.000000
 -0.386364  0.083333  0.125000      2.000000
 -0.340909  0.083333  0.125000      2.000000
 -0.295455  0.083333  0.125000      2.000000
 -0.250000  0.083333  0.125000      2.000000
 -0.204545  0.083333  0.125000      2.000000
 -0.159091  0.083333  0.125000      2.000000
 -0.113636  0.083333  0.125000      2.000000
 -0.068182  0.083333  0.125000      2.000000
 -0.022727  0.083333  0.125000      2.000000
  0.022727  0.138889  0.125000      2.000000
  0.068182  0.138889  0.125000      2.000000
  0.113636  0.138889  0.125000      2.000000
  0.159091  0.138889  0.125000      2.000000
  0.204545  0.138889  0.125000      2.000000
  0.250000  0.138889  0.125000      2.000000
  0.295455  0.138889  0.125000      2.000000
  0.340909  0.138889  0.125000      2.000000
  0.386364  0.138889  0.125000      2.000000
  0.431818  0.138889  0.125000      2.000000
  0.477273  0.138889  0.125000      2.000000
 -0.477273  0.138889  0.125000      2.000000
 -0.431818  0.138889  0.125000      2.000000
 -0.386364  0.138889  0.125000      2.000000
 -0.340909  0.138889  0.125000      2.000000
 -0.295455  0.138889  0.125000      2.000000
[...]
  0.340909 -0.027778  0.375000      2.000000
  0.386364 -0.027778  0.375000      2.000000
  0.431818 -0.027778  0.375000      2.000000
  0.477273 -0.027778  0.375000      2.000000
 -0.477273 -0.027778  0.375000      2.000000
 -0.431818 -0.027778  0.375000      2.000000
 -0.386364 -0.027778  0.375000      2.000000
 -0.340909 -0.027778  0.375000      2.000000
 -0.295455 -0.027778  0.375000      2.000000
 -0.250000 -0.027778  0.375000      2.000000
 -0.204545 -0.027778  0.375000      2.000000
 -0.159091 -0.027778  0.375000      2.000000
 -0.113636 -0.027778  0.375000      2.000000
 -0.068182 -0.027778  0.375000      2.000000
 -0.022727 -0.027778  0.375000      2.000000

 Following cartesian coordinates:
            Coordinates               Weight
  0.005252  0.003477  0.004922      2.000000
  0.016542 -0.001527  0.004918      2.000000
  0.027833 -0.006531  0.004913      2.000000
  0.039123 -0.011535  0.004909      2.000000
  0.050413 -0.016539  0.004904      2.000000
  0.061703 -0.021543  0.004900      2.000000
  0.072994 -0.026547  0.004896      2.000000
  0.084284 -0.031551  0.004891      2.000000
  0.095574 -0.036555  0.004887      2.000000
  0.106864 -0.041559  0.004882      2.000000
  0.118155 -0.046563  0.004878      2.000000
 -0.118941  0.058521  0.004971      2.000000
 -0.107650  0.053517  0.004967      2.000000
 -0.096360  0.048513  0.004962      2.000000
 -0.085070  0.043509  0.004958      2.000000
 -0.073780  0.038505  0.004953      2.000000
 -0.062489  0.033501  0.004949      2.000000
 -0.051199  0.028497  0.004944      2.000000
 -0.039909  0.023493  0.004940      2.000000
 -0.028619  0.018489  0.004936      2.000000
 -0.017328  0.013485  0.004931      2.000000
 -0.006038  0.008481  0.004927      2.000000
  0.005252  0.015788  0.004922      2.000000
  0.016542  0.010784  0.004918      2.000000
  0.027833  0.005780  0.004913      2.000000
  0.039123  0.000776  0.004909      2.000000
  0.050413 -0.004228  0.004904      2.000000
  0.061703 -0.009232  0.004900      2.000000
  0.072994 -0.014236  0.004896      2.000000
  0.084284 -0.019240  0.004891      2.000000
  0.095574 -0.024244  0.004887      2.000000
  0.106864 -0.029248  0.004882      2.000000
  0.118155 -0.034252  0.004878      2.000000
 -0.118941  0.070831  0.004971      2.000000
 -0.107650  0.065827  0.004967      2.000000
 -0.096360  0.060823  0.004962      2.000000
 -0.085070  0.055819  0.004958      2.000000
 -0.073780  0.050815  0.004953      2.000000
 -0.062489  0.045811  0.004949      2.000000
 -0.051199  0.040807  0.004944      2.000000
 -0.039909  0.035803  0.004940      2.000000
 -0.028619  0.030800  0.004936      2.000000
 -0.017328  0.025796  0.004931      2.000000
 -0.006038  0.020792  0.004927      2.000000
  0.005252  0.028098  0.004922      2.000000
  0.016542  0.023094  0.004918      2.000000
  0.027833  0.018090  0.004913      2.000000
  0.039123  0.013086  0.004909      2.000000
  0.050413  0.008083  0.004904      2.000000
  0.061703  0.003079  0.004900      2.000000
  0.072994 -0.001925  0.004896      2.000000
  0.084284 -0.006929  0.004891      2.000000
  0.095574 -0.011933  0.004887      2.000000
  0.106864 -0.016937  0.004882      2.000000
  0.118155 -0.021941  0.004878      2.000000
 -0.118941  0.083142  0.004971      2.000000
 -0.107650  0.078138  0.004967      2.000000
[...]
 k-point 93 :   0.2045 0.2500 0.1250  plane waves:    8377
 k-point 94 :   0.2500 0.2500 0.1250  plane waves:    8369
 k-point 95 :   0.2955 0.2500 0.1250  plane waves:    8348
 k-point 96 :   0.3409 0.2500 0.1250  plane waves:    8347
 k-point 97 :   0.3864 0.2500 0.1250  plane waves:    8343
 k-point 98 :   0.4318 0.2500 0.1250  plane waves:    8342
 k-point 99 :   0.4773 0.2500 0.1250  plane waves:    8358
 k-point ** :  -0.4773 0.2500 0.1250  plane waves:    8355
 k-point ** :  -0.4318 0.2500 0.1250  plane waves:    8365
 k-point ** :  -0.3864 0.2500 0.1250  plane waves:    8380
 k-point ** :  -0.3409 0.2500 0.1250  plane waves:    8390
 k-point ** :  -0.2955 0.2500 0.1250  plane waves:    8394
 k-point ** :  -0.2500 0.2500 0.1250  plane waves:    8388
 k-point ** :  -0.2045 0.2500 0.1250  plane waves:    8404
 k-point ** :  -0.1591 0.2500 0.1250  plane waves:    8419
 k-point ** :  -0.1136 0.2500 0.1250  plane waves:    8416
 k-point ** :  -0.0682 0.2500 0.1250  plane waves:    8418
 k-point ** :  -0.0227 0.2500 0.1250  plane waves:    8407
 k-point ** :   0.0227 0.3056 0.1250  plane waves:    8410
 k-point ** :   0.0682 0.3056 0.1250  plane waves:    8414
 k-point ** :   0.1136 0.3056 0.1250  plane waves:    8392
 k-point ** :   0.1591 0.3056 0.1250  plane waves:    8385
 k-point ** :   0.2045 0.3056 0.1250  plane waves:    8386
 k-point ** :   0.2500 0.3056 0.1250  plane waves:    8375
 k-point ** :   0.2955 0.3056 0.1250  plane waves:    8354
 k-point ** :   0.3409 0.3056 0.1250  plane waves:    8335
 k-point ** :   0.3864 0.3056 0.1250  plane waves:    8326
 k-point ** :   0.4318 0.3056 0.1250  plane waves:    8349
 k-point ** :   0.4773 0.3056 0.1250  plane waves:    8357
 k-point ** :  -0.4773 0.3056 0.1250  plane waves:    8357
 k-point ** :  -0.4318 0.3056 0.1250  plane waves:    8370
 k-point ** :  -0.3864 0.3056 0.1250  plane waves:    8377
 k-point ** :  -0.3409 0.3056 0.1250  plane waves:    8401
 k-point ** :  -0.2955 0.3056 0.1250  plane waves:    8408
 k-point ** :  -0.2500 0.3056 0.1250  plane waves:    8408
 k-point ** :  -0.2045 0.3056 0.1250  plane waves:    8403
 k-point ** :  -0.1591 0.3056 0.1250  plane waves:    8412
 k-point ** :  -0.1136 0.3056 0.1250  plane waves:    8416
 k-point ** :  -0.0682 0.3056 0.1250  plane waves:    8424
 k-point ** :  -0.0227 0.3056 0.1250  plane waves:    8411
 k-point ** :   0.0227 0.3611 0.1250  plane waves:    8421
 k-point ** :   0.0682 0.3611 0.1250  plane waves:    8423
 k-point ** :   0.1136 0.3611 0.1250  plane waves:    8411
 k-point ** :   0.1591 0.3611 0.1250  plane waves:    8396
 k-point ** :   0.2045 0.3611 0.1250  plane waves:    8379
 k-point ** :   0.2500 0.3611 0.1250  plane waves:    8382
 k-point ** :   0.2955 0.3611 0.1250  plane waves:    8372
 k-point ** :   0.3409 0.3611 0.1250  plane waves:    8354
 k-point ** :   0.3864 0.3611 0.1250  plane waves:    8321
 k-point ** :   0.4318 0.3611 0.1250  plane waves:    8331
 k-point ** :   0.4773 0.3611 0.1250  plane waves:    8348
 k-point ** :  -0.4773 0.3611 0.1250  plane waves:    8344
 k-point ** :  -0.4318 0.3611 0.1250  plane waves:    8373
 k-point ** :  -0.3864 0.3611 0.1250  plane waves:    8391
 k-point ** :  -0.3409 0.3611 0.1250  plane waves:    8405
 k-point ** :  -0.2955 0.3611 0.1250  plane waves:    8411
 k-point ** :  -0.2500 0.3611 0.1250  plane waves:    8423
 k-point ** :  -0.2045 0.3611 0.1250  plane waves:    8416
 k-point ** :  -0.1591 0.3611 0.1250  plane waves:    8419
 k-point ** :  -0.1136 0.3611 0.1250  plane waves:    8430
 k-point ** :  -0.0682 0.3611 0.1250  plane waves:    8424
 k-point ** :  -0.0227 0.3611 0.1250  plane waves:    8424
 k-point ** :   0.0227 0.4167 0.1250  plane waves:    8429
 k-point ** :   0.0682 0.4167 0.1250  plane waves:    8415
 k-point ** :   0.1136 0.4167 0.1250  plane waves:    8420
 k-point ** :   0.1591 0.4167 0.1250  plane waves:    8411
 k-point ** :   0.2045 0.4167 0.1250  plane waves:    8396
[...]
 k-point ** :   0.3409-0.0278 0.3750  plane waves:    8348
 k-point ** :   0.3864-0.0278 0.3750  plane waves:    8347
 k-point ** :   0.4318-0.0278 0.3750  plane waves:    8347
 k-point ** :   0.4773-0.0278 0.3750  plane waves:    8341
 k-point ** :  -0.4773-0.0278 0.3750  plane waves:    8341
 k-point ** :  -0.4318-0.0278 0.3750  plane waves:    8334
 k-point ** :  -0.3864-0.0278 0.3750  plane waves:    8321
 k-point ** :  -0.3409-0.0278 0.3750  plane waves:    8332
 k-point ** :  -0.2955-0.0278 0.3750  plane waves:    8348
 k-point ** :  -0.2500-0.0278 0.3750  plane waves:    8357
 k-point ** :  -0.2045-0.0278 0.3750  plane waves:    8370
 k-point ** :  -0.1591-0.0278 0.3750  plane waves:    8364
 k-point ** :  -0.1136-0.0278 0.3750  plane waves:    8364
 k-point ** :  -0.0682-0.0278 0.3750  plane waves:    8355
 k-point ** :  -0.0227-0.0278 0.3750  plane waves:    8355

 maximum and minimum number of plane-waves per node :      8438     8319

 maximum number of plane-waves:      8438
 maximum index in each direction:
   IXMAX=    7   IYMAX=    8   IZMAX=   41
   IXMIN=   -7   IYMIN=   -8   IZMIN=  -41

 serial   3D FFT for wavefunctions
 parallel 3D FFT for charge:
    minimum data exchange during FFTs selected (reduces bandwidth)

 Broyden mixing: mesh for mixing (old mesh)
   NGX = 13   NGY = 17   NGZ = 83
  (NGX  = 56   NGY  = 64   NGZ  =336)
  gives a total of  18343 points

 initial charge density was supplied:
 charge density of overlapping atoms calculated
 number of electron      36.0000000 magnetization
 keeping initial charge density in first step

 Maximum index for non-local projection operator         3491
 Maximum index for augmentation-charges          580 (set IRDMAX)

 First call to EWALD:  gamma=   0.229
 Maximum number of real-space cells 5x 4x 1
 Maximum number of reciprocal cells 2x 2x 8

--------------------------------------- Iteration      1(   1)  ---------------------------------------

 eigenvalue-minimisations  : 50688
 total energy-change (2. order) : 0.4995938E+02  (-0.1106333E+04)
 number of electron      36.0000000 magnetization
 augmentation part       36.0000000 magnetization

 Free energy of the ion-electron system (eV)
  alpha Z        PSCENC =        -1.04873232
  Ewald energy   TEWEN  =      3582.07173175
  -Hartree energ DENC   =     -4173.42697889
  -exchange      EXHF   =         0.00000000
  -V(xc)+E(xc)   XCENC  =      -317.46271229
  PAW double counting   =       794.40188551     -410.94744908
  entropy T*S    EENTRO =        -0.00093914
  eigenvalues    EBANDS =       -66.08528122
  atomic energy  EATOM  =       642.45785186
  Solvation  Ediel_sol  =         0.00000000
  free energy    TOTEN  =        49.95937619 eV

  energy without entropy =       49.96031532  energy(sigma->0) =       49.95968923

[...]

 eigenvalue-minimisations  : 90400
 total energy-change (2. order) :-0.9344654E+02  (-0.9314834E+02)
 number of electron      36.0000000 magnetization
 augmentation part       36.0000000 magnetization

[...]

 eigenvalue-minimisations  :100000
 total energy-change (2. order) :-0.1141550E-01  (-0.1141413E-01)
 number of electron      36.0000000 magnetization
 augmentation part       36.0000000 magnetization

[...]

 Broyden mixing:
  rms(total) = 0.50295E+00    rms(broyden)= 0.50295E+00
  rms(prec ) = 0.73115E+00
  weight for this iteration     100.00

[...]

 eigenvalues of (default mixing * dielectric matrix)
  average eigenvalue GAMMA=   1.0700
  1.0700

[...]

 eigenvalue-minimisations  : 61198
 total energy-change (2. order) : 0.2769910E-04  (-0.1279027E-03)
 number of electron      36.0000001 magnetization
 augmentation part       -0.4960156 magnetization

[...]

 Broyden mixing:
  rms(total) = 0.60343E-04    rms(broyden)= 0.60343E-04
  rms(prec ) = 0.60555E-04
  weight for this iteration     100.00

 eigenvalues of (default mixing * dielectric matrix)
  average eigenvalue GAMMA=   2.4661
  9.0808  6.2545  3.6169  3.6169  2.7489  2.4931  1.8133  1.6772  1.6772  0.5792
  1.1770  0.8341  0.9905  0.9905  0.9537  0.9537

[...]

--------------------------------------- Iteration      1(  22)  ---------------------------------------

 eigenvalue-minimisations  : 26149
 total energy-change (2. order) :-0.2347672E-06  (-0.5862644E-08)
 number of electron      36.0000001 magnetization
 augmentation part       -0.4963250 magnetization

 Free energy of the ion-electron system (eV)
  alpha Z        PSCENC =        -1.04873232
  Ewald energy   TEWEN  =      3582.07173175
  -Hartree energ DENC   =     -4221.89559590
  -exchange      EXHF   =         0.00000000
  -V(xc)+E(xc)   XCENC  =      -316.02733319
  PAW double counting   =      1578.70792642    -1195.39185668
  entropy T*S    EENTRO =         0.00078720
  eigenvalues    EBANDS =      -111.41264509
  atomic energy  EATOM  =       642.45785186
  Solvation  Ediel_sol  =         0.00000000
  free energy    TOTEN  =       -42.53786595 eV

  energy without entropy =      -42.53865314  energy(sigma->0) =      -42.53812835

 average (electrostatic) potential at core
  the test charge radii are     1.0406
  (the norm of the test charge is              1.0000)
       1 -79.6214       2 -79.5993       3 -79.5755       4 -79.5554       5 -79.5736
       6 -79.5813       7 -79.5813       8 -79.5736       9 -79.5554      10 -79.5754
      11 -79.5993      12 -79.6214

 E-fermi :   1.0202     XC(G=0):  -5.2387     alpha+bet : -6.3867

 k-point     1 :       0.0227    0.0278    0.1250
  band No.  band energies     occupation
      1      -9.8046      2.00000
      2      -8.9337      2.00000
      3      -7.5734      2.00000
      4      -5.8375      2.00000
      5      -3.8689      2.00000
      6      -2.9808      2.00000
      7      -2.5437      2.00000
      8      -2.1906      2.00000
      9      -1.8740      2.00000
     10      -1.6107      2.00000
     11      -0.8585      2.00000
     12      -0.1672      2.00000
     13      -0.0775      2.00000
     14       0.0672      2.00000
     15       0.2669      2.00000
     16       0.6219      2.01644
     17       0.8321      2.03554
     18       0.9596      1.48762
     19       1.4164     -0.01699
     20       1.5938     -0.00038
     21       1.8100     -0.00000
     22       1.8461     -0.00000
     23       2.2067     -0.00000
     24       2.2308     -0.00000
     25       2.3422     -0.00000
     26       2.6771     -0.00000
     27       3.0618     -0.00000
     28       3.4550     -0.00000
     29       3.5319     -0.00000
     30       3.7810     -0.00000
     31       4.0043     -0.00000
     32       4.0064     -0.00000

[...]

 k-point   792 :      -0.0227   -0.0278    0.3750
  band No.  band energies     occupation
      1      -9.8046      2.00000
      2      -8.9337      2.00000
      3      -7.5734      2.00000
      4      -5.8375      2.00000
      5      -3.8689      2.00000
      6      -2.9809      2.00000
      7      -2.5437      2.00000
      8      -2.1906      2.00000
      9      -1.8740      2.00000
     10      -1.6107      2.00000
     11      -0.8586      2.00000
     12      -0.1672      2.00000
     13      -0.0775      2.00000
     14       0.0672      2.00000
     15       0.2669      2.00000
     16       0.6219      2.01644
     17       0.8321      2.03554
     18       0.9596      1.48761
     19       1.4164     -0.01699
     20       1.5938     -0.00038
     21       1.8100     -0.00000
     22       1.8461     -0.00000
     23       2.2067     -0.00000
     24       2.2307     -0.00000
     25       2.3422     -0.00000
     26       2.6771     -0.00000
     27       3.0617     -0.00000
     28       3.4550     -0.00000
     29       3.5318     -0.00000
     30       3.7808     -0.00000
     31       4.0041     -0.00000
     32       4.0082     -0.00000

 soft charge-density along one line, spin component           1
         0         1         2         3         4         5         6         7         8         9
 total charge-density along one line

------------------------ aborting loop because EDIFF is reached ----------------------------------------

  FORCE on cell =-STRESS in cart. coord.  units (eV):
  Direction    XX          YY          ZZ          XY          YZ          ZX
  Alpha Z    -1.04873    -1.04873    -1.04873
  Ewald    4093.74888  4141.60748 -4653.28523   -25.06217   313.96036   702.49595
  Hartree  4165.67616  4207.36121 -4151.14114   -23.92499   299.76780   668.00813
  E(xc)    -100.54014  -100.60022  -100.73677    -0.00057     0.00066     0.01752
  Local   -8548.94534 -8639.22828  8516.49693    48.99712  -613.95726 -1370.63436
  n-local   230.22937   231.27065   227.20467    -0.00433     0.14361     0.22141
  augment   -13.24026   -13.29225   -13.18473    -0.00007     0.00883    -0.00364
  Kinetic   170.81753   170.17606   176.50268     0.01671    -0.65952    -0.45598
  Fock        0.00000     0.00000     0.00000     0.00000     0.00000     0.00000
  Total      -3.30254    -3.75408     0.80767     0.02172    -0.73552    -0.35096
  in kB     -11.47294   -13.04161     2.80584     0.07546    -2.55518    -1.21923

 VOLUME and BASIS-vectors are now :
  energy-cutoff  :      400.00
  volume of cell :      461.19
      direct lattice vectors                 reciprocal lattice vectors
     4.026127982  0.000000000  0.321319994     0.248385408 -0.110087147 -0.000097850
     2.000241927  4.512783542  0.321319994     0.000000000  0.221592724  0.000000000
     0.010000000  0.000000000 25.384279508    -0.003144119 -0.001411463  0.039395699

  length of vectors
     4.038929693  4.946658428 25.384281477     0.271688241  0.221592724  0.039546161

 FORCES acting on ions
    electron-ion (+dipol)            ewald-force                    non-local-force                 convergence-correction
   0.181E+02 0.102E+02 -.227E+03   -.181E+02 -.102E+02 0.226E+03   -.964E-01 -.101E+00 0.121E+01   -.458E-05 0.430E-05 0.563E-04
   0.101E+02 0.516E+01 -.126E+03   -.101E+02 -.500E+01 0.127E+03   0.191E-01 -.220E+00 -.230E+00   0.200E-05 0.498E-05 -.259E-04
   0.206E+02 0.845E+01 -.258E+03   -.205E+02 -.878E+01 0.257E+03   -.552E-01 0.317E+00 0.646E+00   -.490E-05 -.340E-05 0.619E-04
   0.144E+02 0.427E+01 -.180E+03   -.143E+02 -.436E+01 0.180E+03   -.279E-01 0.117E+00 0.350E+00   -.148E-05 -.716E-05 0.198E-04
   0.202E+01 0.103E+01 -.253E+02   -.203E+01 -.875E+00 0.254E+02   0.538E-02 -.780E-01 -.998E-01   0.193E-05 0.293E-05 -.232E-04
   -.609E+01 -.276E+01 0.763E+02   0.609E+01 0.271E+01 -.763E+02   0.269E-02 0.344E-01 -.730E-02   -.417E-05 0.475E-06 0.521E-04
   0.609E+01 0.276E+01 -.763E+02   -.609E+01 -.271E+01 0.763E+02   -.269E-02 -.344E-01 0.730E-02   0.417E-05 -.475E-06 -.521E-04
   -.202E+01 -.103E+01 0.253E+02   0.203E+01 0.875E+00 -.254E+02   -.538E-02 0.780E-01 0.998E-01   -.193E-05 -.293E-05 0.232E-04
   -.144E+02 -.427E+01 0.180E+03   0.143E+02 0.436E+01 -.180E+03   0.279E-01 -.117E+00 -.350E+00   0.148E-05 0.716E-05 -.198E-04
   -.206E+02 -.845E+01 0.258E+03   0.205E+02 0.878E+01 -.257E+03   0.552E-01 -.317E+00 -.646E+00   0.490E-05 0.340E-05 -.619E-04
   -.101E+02 -.516E+01 0.126E+03   0.101E+02 0.500E+01 -.127E+03   -.191E-01 0.220E+00 0.230E+00   -.200E-05 -.498E-05 0.259E-04
   -.181E+02 -.102E+02 0.227E+03   0.181E+02 0.102E+02 -.226E+03   0.964E-01 0.101E+00 -.121E+01   0.458E-05 -.430E-05 -.563E-04
   -.151E-05 0.147E-04 -.935E-06   -.711E-14 0.711E-14 0.171E-12   0.000E+00 0.278E-16 -.222E-15   -.197E-09 -.852E-10 0.243E-08

 POSITION                                       TOTAL-FORCE (eV/Angst)
      2.12831      0.72527     24.21949        -0.026359     -0.067491      0.312408
      4.28170      1.69229     22.61289        -0.003897     -0.061035      0.050027
      4.06480      2.49815     25.34411         0.017692     -0.007996     -0.230570
      2.19206      3.46517     23.41619        -0.005879      0.030856      0.078362
      2.40897      2.65932     20.68497        -0.000382      0.073725      0.010005
      4.56236      3.62634     19.07837        -0.002106     -0.013219      0.030094
      4.34546      4.43220     21.80959         0.002106      0.013219     -0.030094
      0.47248      0.88644     19.56035         0.000382     -0.073725     -0.010005
      0.68938      0.08059     16.82913         0.005879     -0.030856     -0.078362
      2.84277      1.04761     15.22253        -0.017692      0.007996      0.230570
      2.62587      1.85346     17.95375         0.003897      0.061035     -0.050027
      4.77926      2.82049     16.34715         0.026359      0.067491     -0.312408
    total drift:                               -0.000002      0.000015     -0.000001

  FREE ENERGIE OF THE ION-ELECTRON SYSTEM (eV)
  free  energy   TOTEN  =       -42.53786595 eV

  energy  without entropy=      -42.53865314  energy(sigma->0) =      -42.53812835