 vasp.6.4.2 20Jul23 (build Apr 22 2024 22:35:45) complex
 executed on             LinuxGNU date 2024.05.26  16:32:21

 INCAR:
   ALGO = Fast
   EDIFF = 1e-06
   ENCUT = 400
   IBRION = 2
   ISIF = 2
   ISMEAR = 1
   KSPACING = 0.08
   LCHARG = False
   LREAL = Auto
   LWAVE = False
   NELM = 60
   NELMIN = 4
   NSW = 100
   PREC = Accurate
   SIGMA = 0.2
   SYSTEM = Al fcc relaxation

 POTCAR:    PAW_PBE Al 04Jan2001
 POTCAR:    PAW_PBE Al 04Jan2001
   VRHFIN =Al: s2p1

   TITEL  = PAW_PBE Al 04Jan2001
   POMASS =   26.981; ZVAL   =    3.000    mass and valenz
   ENMAX  =  240.300; ENMIN  =  180.225 eV

 Optimization of the real space projectors (new method)

 maximal supplied QI-value         = 19.84
 optimisation between [QCUT,QGAM] = [ 10.12, 20.44] = [ 28.68,116.96] Ry
 Optimized for a Real-space Cutoff    1.38 Angstroem

   l    n(q)    QCUT    max X(q) W(low)/X(q) W(high)/X(q)  e(spline)
   0      8    10.119   176.870    0.39E-04    0.93E-04    0.54E-07
   0      8    10.119   105.762    0.37E-04    0.91E-04    0.53E-07
   1      8    10.119    55.370    0.18E-03    0.13E-03    0.19E-06
   1      8    10.119    20.208    0.17E-03    0.12E-03    0.18E-06
  PAW_PBE Al 04Jan2001                  :

 POSCAR: Al4
  positions in direct lattice
 exchange correlation table for  LEXCH =        8
   RHO(1)=    0.500       N(1)  =     2000
   RHO(2)=  100.500       N(2)  =     4000

 ion  position               nearest neighbor table
   1  0.000  0.000  0.000-   4 2.86   4 2.86   4 2.86   4 2.86   3 2.86   2 2.86   3 2.86   2 2.86
                             3 2.86   2 2.86   3 2.86   2 2.86
   2  0.000  0.500  0.500-   3 2.86   3 2.86   3 2.86   3 2.86   4 2.86   1 2.86   1 2.86   1 2.86
                             4 2.86   4 2.86   4 2.86   1 2.86
   3  0.500  0.000  0.500-   2 2.86   2 2.86   2 2.86   2 2.86   4 2.86   1 2.86   4 2.86   4 2.86
                             1 2.86   4 2.86   1 2.86   1 2.86
   4  0.500  0.500  0.000-   1 2.86   1 2.86   1 2.86   1 2.86   3 2.86   2 2.86   3 2.86   3 2.86
                             3 2.86   2 2.86   2 2.86   2 2.86

  LATTYP: Found a simple tetragonal cell.
 ALAT       =     4.0389296932
 C/A-ratio  =     1.0049875621

  Lattice vectors:

 A1 = (   4.0389296932,   0.0000000000,   0.0000000000)
 A2 = (  -0.0000000000,   4.0389296932,   0.0000000000)
 A3 = (   0.0000000000,   0.0000000000,   4.0590741059)

Analysis of symmetry for initial positions (statically):
 Subroutine PRICEL returns following result:

  LATTYP: Found a body centered tetragonal cell.
 ALAT       =     2.8559545748
 C/A-ratio  =     1.4212670404

[...]

   4 primitive cells build up your supercell.

 Routine SETGRP: Setting up the symmetry group for a
 simple tetragonal supercell.

 Subroutine GETGRP returns: Found 16 space group operations
 (whereof 16 operations were pure point group operations)
 out of a pool of 16 trial point group operations.

The static configuration has the point symmetry D_4h.

Analysis of symmetry for dynamics (positions and initial velocities):
 Subroutine PRICEL returns following result:

  LATTYP: Found a body centered tetragonal cell.
 ALAT       =     2.8559545748
 C/A-ratio  =     1.4212670404

  Lattice vectors:

 A1 = (   0.0000000000,  -2.0194648466,  -2.0295370529)
 A2 = (   0.0000000000,   2.0194648466,  -2.0295370529)
 A3 = (   2.0194648466,   0.0000000000,   2.0295370529)

   4 primitive cells build up your supercell.

 Routine SETGRP: Setting up the symmetry group for a
 simple tetragonal supercell.

 Subroutine GETGRP returns: Found 16 space group operations
 (whereof 16 operations were pure point group operations)
 out of a pool of 16 trial point group operations.

The dynamic configuration has the point symmetry D_4h.

 Subroutine INISYM returns: Found 16 space group operations
 (whereof 16 operations are pure point group operations),
 and found     4 'primitive' translations

                                     Primitive cell

  volume of cell :      16.5539

  direct lattice vectors                    reciprocal lattice vectors
     0.000000000 -2.019464847 -2.029537053     0.247590346 -0.247590346 -0.246361602
     0.000000000  2.019464847 -2.029537053     0.247590346  0.247590346 -0.246361602
     2.019464847  0.000000000  2.029537053     0.495180692  0.000000000  0.000000000

  length of vectors
     2.863085559  2.863085559  2.863085559     0.428130819  0.428130819  0.495180692

  position of ions in fractional coordinates (direct lattice)
     0.000000000  0.000000000  0.000000000

  ion indices of the primitive-cell ions
   primitive index   ion index
                 1           1

 KPOINTS: Automatic kpoint scheme

Automatic generation of k-mesh.
 Grid dimensions read from file:
 generate k-points for:   20   20   20

 Generating k-lattice:

  Cartesian coordinates                     Fractional coordinates (reciprocal lattice)
     0.012379517  0.000000000 -0.000000000     0.050000000 -0.000000000  0.000000000
     0.000000000  0.012379517 -0.000000000     0.000000000  0.050000000  0.000000000
     0.000000000 -0.000000000  0.012318080     0.000000000  0.000000000  0.050000000

  Length of vectors
     0.012379517  0.012379517  0.012318080

  Shift w.r.t. Gamma in fractional coordinates (k-lattice)
     0.500000000  0.500000000  0.500000000

 Subroutine IBZKPT returns following result:

 Found    550 irreducible k-points:

 Following reciprocal coordinates:
            Coordinates               Weight
  0.025000  0.025000  0.025000      8.000000
  0.075000  0.025000  0.025000     16.000000
  0.125000  0.025000  0.025000     16.000000
  0.175000  0.025000  0.025000     16.000000
  0.225000  0.025000  0.025000     16.000000
  0.275000  0.025000  0.025000     16.000000
  0.325000  0.025000  0.025000     16.000000
  0.375000  0.025000  0.025000     16.000000
  0.425000  0.025000  0.025000     16.000000
  0.475000  0.025000  0.025000     16.000000
  0.075000  0.075000  0.025000      8.000000
  0.125000  0.075000  0.025000     16.000000
  0.175000  0.075000  0.025000     16.000000
  0.225000  0.075000  0.025000     16.000000
  0.275000  0.075000  0.025000     16.000000
  0.325000  0.075000  0.025000     16.000000
  0.375000  0.075000  0.025000     16.000000
  0.425000  0.075000  0.025000     16.000000
  0.475000  0.075000  0.025000     16.000000
  0.125000  0.125000  0.025000      8.000000
  0.175000  0.125000  0.025000     16.000000
  0.225000  0.125000  0.025000     16.000000
  0.275000  0.125000  0.025000     16.000000
  0.325000  0.125000  0.025000     16.000000
  0.375000  0.125000  0.025000     16.000000
  0.425000  0.125000  0.025000     16.000000
  0.475000  0.125000  0.025000     16.000000
  0.175000  0.175000  0.025000      8.000000
  0.225000  0.175000  0.025000     16.000000
  0.275000  0.175000  0.025000     16.000000
  0.325000  0.175000  0.025000     16.000000
  0.375000  0.175000  0.025000     16.000000
  0.425000  0.175000  0.025000     16.000000
  0.475000  0.175000  0.025000     16.000000
  0.225000  0.225000  0.025000      8.000000
  0.275000  0.225000  0.025000     16.000000
  0.325000  0.225000  0.025000     16.000000
  0.375000  0.225000  0.025000     16.000000
  0.425000  0.225000  0.025000     16.000000
  0.475000  0.225000  0.025000     16.000000
  0.275000  0.275000  0.025000      8.000000
  0.325000  0.275000  0.025000     16.000000
  0.375000  0.275000  0.025000     16.000000
  0.425000  0.275000  0.025000     16.000000
  0.475000  0.275000  0.025000     16.000000
  0.325000  0.325000  0.025000      8.000000
  0.375000  0.325000  0.025000     16.000000
  0.425000  0.325000  0.025000     16.000000
  0.475000  0.325000  0.025000     16.000000
  0.375000  0.375000  0.025000      8.000000
  0.425000  0.375000  0.025000     16.000000
  0.475000  0.375000  0.025000     16.000000
  0.425000  0.425000  0.025000      8.000000
  0.475000  0.425000  0.025000     16.000000
  0.475000  0.475000  0.025000      8.000000
  0.025000  0.025000  0.075000      8.000000
  0.075000  0.025000  0.075000     16.000000
  0.125000  0.025000  0.075000     16.000000
  0.175000  0.025000  0.075000     16.000000
  0.225000  0.025000  0.075000     16.000000
[...]
  0.275000  0.275000  0.475000      8.000000
  0.325000  0.275000  0.475000     16.000000
  0.375000  0.275000  0.475000     16.000000
  0.425000  0.275000  0.475000     16.000000
  0.475000  0.275000  0.475000     16.000000
  0.325000  0.325000  0.475000      8.000000
  0.375000  0.325000  0.475000     16.000000
  0.425000  0.325000  0.475000     16.000000
  0.475000  0.325000  0.475000     16.000000
  0.375000  0.375000  0.475000      8.000000
  0.425000  0.375000  0.475000     16.000000
  0.475000  0.375000  0.475000     16.000000
  0.425000  0.425000  0.475000      8.000000
  0.475000  0.425000  0.475000     16.000000
  0.475000  0.475000  0.475000      8.000000

 Following cartesian coordinates:
            Coordinates               Weight
  0.006190  0.006190  0.006159      8.000000
  0.018569  0.006190  0.006159     16.000000
  0.030949  0.006190  0.006159     16.000000
  0.043328  0.006190  0.006159     16.000000
  0.055708  0.006190  0.006159     16.000000
  0.068087  0.006190  0.006159     16.000000
  0.080467  0.006190  0.006159     16.000000
  0.092846  0.006190  0.006159     16.000000
  0.105226  0.006190  0.006159     16.000000
  0.117605  0.006190  0.006159     16.000000
  0.018569  0.018569  0.006159      8.000000
  0.030949  0.018569  0.006159     16.000000
  0.043328  0.018569  0.006159     16.000000
  0.055708  0.018569  0.006159     16.000000
  0.068087  0.018569  0.006159     16.000000
  0.080467  0.018569  0.006159     16.000000
  0.092846  0.018569  0.006159     16.000000
  0.105226  0.018569  0.006159     16.000000
  0.117605  0.018569  0.006159     16.000000
  0.030949  0.030949  0.006159      8.000000
  0.043328  0.030949  0.006159     16.000000
  0.055708  0.030949  0.006159     16.000000
  0.068087  0.030949  0.006159     16.000000
  0.080467  0.030949  0.006159     16.000000
  0.092846  0.030949  0.006159     16.000000
  0.105226  0.030949  0.006159     16.000000
  0.117605  0.030949  0.006159     16.000000
  0.043328  0.043328  0.006159      8.000000
  0.055708  0.043328  0.006159     16.000000
  0.068087  0.043328  0.006159     16.000000
  0.080467  0.043328  0.006159     16.000000
  0.092846  0.043328  0.006159     16.000000
  0.105226  0.043328  0.006159     16.000000
  0.117605  0.043328  0.006159     16.000000
  0.055708  0.055708  0.006159      8.000000
  0.068087  0.055708  0.006159     16.000000
  0.080467  0.055708  0.006159     16.000000
  0.092846  0.055708  0.006159     16.000000
  0.105226  0.055708  0.006159     16.000000
  0.117605  0.055708  0.006159     16.000000
  0.068087  0.068087  0.006159      8.000000
  0.080467  0.068087  0.006159     16.000000
  0.092846  0.068087  0.006159     16.000000
  0.105226  0.068087  0.006159     16.000000
  0.117605  0.068087  0.006159     16.000000
  0.080467  0.080467  0.006159      8.000000
  0.092846  0.080467  0.006159     16.000000
  0.105226  0.080467  0.006159     16.000000
  0.117605  0.080467  0.006159     16.000000
  0.092846  0.092846  0.006159      8.000000
[...]
   0.27500000  0.07500000  0.02500000       0.002
   0.32500000  0.07500000  0.02500000       0.002
   0.37500000  0.07500000  0.02500000       0.002
   0.42500000  0.07500000  0.02500000       0.002
   0.47500000  0.07500000  0.02500000       0.002
   0.12500000  0.12500000  0.02500000       0.001
   0.17500000  0.12500000  0.02500000       0.002
   0.22500000  0.12500000  0.02500000       0.002
   0.27500000  0.12500000  0.02500000       0.002
   0.32500000  0.12500000  0.02500000       0.002
   0.37500000  0.12500000  0.02500000       0.002
   0.42500000  0.12500000  0.02500000       0.002
   0.47500000  0.12500000  0.02500000       0.002
   0.17500000  0.17500000  0.02500000       0.001
   0.22500000  0.17500000  0.02500000       0.002
   0.27500000  0.17500000  0.02500000       0.002
   0.32500000  0.17500000  0.02500000       0.002
   0.37500000  0.17500000  0.02500000       0.002
   0.42500000  0.17500000  0.02500000       0.002
   0.47500000  0.17500000  0.02500000       0.002
   0.22500000  0.22500000  0.02500000       0.001
   0.27500000  0.22500000  0.02500000       0.002
   0.32500000  0.22500000  0.02500000       0.002
   0.37500000  0.22500000  0.02500000       0.002
   0.42500000  0.22500000  0.02500000       0.002
   0.47500000  0.22500000  0.02500000       0.002
   0.27500000  0.27500000  0.02500000       0.001
   0.32500000  0.27500000  0.02500000       0.002
   0.37500000  0.27500000  0.02500000       0.002
   0.42500000  0.27500000  0.02500000       0.002
   0.47500000  0.27500000  0.02500000       0.002
   0.32500000  0.32500000  0.02500000       0.001
   0.37500000  0.32500000  0.02500000       0.002
   0.42500000  0.32500000  0.02500000       0.002
   0.47500000  0.32500000  0.02500000       0.002
   0.37500000  0.37500000  0.02500000       0.001
   0.42500000  0.37500000  0.02500000       0.002
   0.47500000  0.37500000  0.02500000       0.002
   0.42500000  0.42500000  0.02500000       0.001
   0.47500000  0.42500000  0.02500000       0.002
   0.47500000  0.47500000  0.02500000       0.001
   0.02500000  0.02500000  0.07500000       0.001
   0.07500000  0.02500000  0.07500000       0.002
   0.12500000  0.02500000  0.07500000       0.002
   0.17500000  0.02500000  0.07500000       0.002
   0.22500000  0.02500000  0.07500000       0.002
[...]
   0.27500000  0.27500000  0.47500000       0.001
   0.32500000  0.27500000  0.47500000       0.002
   0.37500000  0.27500000  0.47500000       0.002
   0.42500000  0.27500000  0.47500000       0.002
   0.47500000  0.27500000  0.47500000       0.002
   0.32500000  0.32500000  0.47500000       0.001
   0.37500000  0.32500000  0.47500000       0.002
   0.42500000  0.32500000  0.47500000       0.002
   0.47500000  0.32500000  0.47500000       0.002
   0.37500000  0.37500000  0.47500000       0.001
   0.42500000  0.37500000  0.47500000       0.002
   0.47500000  0.37500000  0.47500000       0.002
   0.42500000  0.42500000  0.47500000       0.001
   0.47500000  0.42500000  0.47500000       0.002
   0.47500000  0.47500000  0.47500000       0.001

 position of ions in fractional coordinates (direct lattice)
   0.00000000  0.00000000  0.00000000
   0.00000000  0.50000000  0.50000000
   0.50000000  0.00000000  0.50000000
   0.50000000  0.50000000  0.00000000

 position of ions in cartesian coordinates  (Angst):
   0.00000000  0.00000000  0.00000000
   0.00000000  2.01946485  2.02953705
   2.01946485  0.00000000  2.02953705
   2.01946485  2.01946485  0.00000000

 k-point   1 :   0.0250 0.0250 0.0250  plane waves:    1214
 k-point   2 :   0.0750 0.0250 0.0250  plane waves:    1214
 k-point   3 :   0.1250 0.0250 0.0250  plane waves:    1213
 k-point   4 :   0.1750 0.0250 0.0250  plane waves:    1214
 k-point   5 :   0.2250 0.0250 0.0250  plane waves:    1213
 k-point   6 :   0.2750 0.0250 0.0250  plane waves:    1213
 k-point   7 :   0.3250 0.0250 0.0250  plane waves:    1205
 k-point   8 :   0.3750 0.0250 0.0250  plane waves:    1205
 k-point   9 :   0.4250 0.0250 0.0250  plane waves:    1209
 k-point  10 :   0.4750 0.0250 0.0250  plane waves:    1206
 k-point  11 :   0.0750 0.0750 0.0250  plane waves:    1215
 k-point  12 :   0.1250 0.0750 0.0250  plane waves:    1218
 k-point  13 :   0.1750 0.0750 0.0250  plane waves:    1218
 k-point  14 :   0.2250 0.0750 0.0250  plane waves:    1211
 k-point  15 :   0.2750 0.0750 0.0250  plane waves:    1209
 k-point  16 :   0.3250 0.0750 0.0250  plane waves:    1209
 k-point  17 :   0.3750 0.0750 0.0250  plane waves:    1201
 k-point  18 :   0.4250 0.0750 0.0250  plane waves:    1200
 k-point  19 :   0.4750 0.0750 0.0250  plane waves:    1202
 k-point  20 :   0.1250 0.1250 0.0250  plane waves:    1225
 k-point  21 :   0.1750 0.1250 0.0250  plane waves:    1220
 k-point  22 :   0.2250 0.1250 0.0250  plane waves:    1216
 k-point  23 :   0.2750 0.1250 0.0250  plane waves:    1203
 k-point  24 :   0.3250 0.1250 0.0250  plane waves:    1203
 k-point  25 :   0.3750 0.1250 0.0250  plane waves:    1199
 k-point  26 :   0.4250 0.1250 0.0250  plane waves:    1199
 k-point  27 :   0.4750 0.1250 0.0250  plane waves:    1196
 k-point  28 :   0.1750 0.1750 0.0250  plane waves:    1215
 k-point  29 :   0.2250 0.1750 0.0250  plane waves:    1208
 k-point  30 :   0.2750 0.1750 0.0250  plane waves:    1205
 k-point  31 :   0.3250 0.1750 0.0250  plane waves:    1206
 k-point  32 :   0.3750 0.1750 0.0250  plane waves:    1202
 k-point  33 :   0.4250 0.1750 0.0250  plane waves:    1204
 k-point  34 :   0.4750 0.1750 0.0250  plane waves:    1200
 k-point  35 :   0.2250 0.2250 0.0250  plane waves:    1201
 k-point  36 :   0.2750 0.2250 0.0250  plane waves:    1204
 k-point  37 :   0.3250 0.2250 0.0250  plane waves:    1202
 k-point  38 :   0.3750 0.2250 0.0250  plane waves:    1208
 k-point  39 :   0.4250 0.2250 0.0250  plane waves:    1208
 k-point  40 :   0.4750 0.2250 0.0250  plane waves:    1201
 k-point  41 :   0.2750 0.2750 0.0250  plane waves:    1199
 k-point  42 :   0.3250 0.2750 0.0250  plane waves:    1201
 k-point  43 :   0.3750 0.2750 0.0250  plane waves:    1200
 k-point  44 :   0.4250 0.2750 0.0250  plane waves:    1200
 k-point  45 :   0.4750 0.2750 0.0250  plane waves:    1197
 k-point  46 :   0.3250 0.3250 0.0250  plane waves:    1201
 k-point  47 :   0.3750 0.3250 0.0250  plane waves:    1198
 k-point  48 :   0.4250 0.3250 0.0250  plane waves:    1198
 k-point  49 :   0.4750 0.3250 0.0250  plane waves:    1204
 k-point  50 :   0.3750 0.3750 0.0250  plane waves:    1202
 k-point  51 :   0.4250 0.3750 0.0250  plane waves:    1200
 k-point  52 :   0.4750 0.3750 0.0250  plane waves:    1202
 k-point  53 :   0.4250 0.4250 0.0250  plane waves:    1204
 k-point  54 :   0.4750 0.4250 0.0250  plane waves:    1202
 k-point  55 :   0.4750 0.4750 0.0250  plane waves:    1204
 k-point  56 :   0.0250 0.0250 0.0750  plane waves:    1212
 k-point  57 :   0.0750 0.0250 0.0750  plane waves:    1217
 k-point  58 :   0.1250 0.0250 0.0750  plane waves:    1216
 k-point  59 :   0.1750 0.0250 0.0750  plane waves:    1218
 k-point  60 :   0.2250 0.0250 0.0750  plane waves:    1212
[...]
 k-point 536 :   0.2750 0.2750 0.4750  plane waves:    1204
 k-point 537 :   0.3250 0.2750 0.4750  plane waves:    1201
 k-point 538 :   0.3750 0.2750 0.4750  plane waves:    1198
 k-point 539 :   0.4250 0.2750 0.4750  plane waves:    1195
 k-point 540 :   0.4750 0.2750 0.4750  plane waves:    1202
 k-point 541 :   0.3250 0.3250 0.4750  plane waves:    1194
 k-point 542 :   0.3750 0.3250 0.4750  plane waves:    1196
 k-point 543 :   0.4250 0.3250 0.4750  plane waves:    1195
 k-point 544 :   0.4750 0.3250 0.4750  plane waves:    1196
 k-point 545 :   0.3750 0.3750 0.4750  plane waves:    1196
 k-point 546 :   0.4250 0.3750 0.4750  plane waves:    1192
 k-point 547 :   0.4750 0.3750 0.4750  plane waves:    1192
 k-point 548 :   0.4250 0.4250 0.4750  plane waves:    1188
 k-point 549 :   0.4750 0.4250 0.4750  plane waves:    1190
 k-point 550 :   0.4750 0.4750 0.4750  plane waves:    1208

 maximum and minimum number of plane-waves per node :      1225     1188

 maximum number of plane-waves:      1225
 maximum index in each direction:
   IXMAX=    6   IYMAX=    6   IZMAX=    6
   IXMIN=   -7   IYMIN=   -7   IZMIN=   -7

 serial   3D FFT for wavefunctions
 parallel 3D FFT for charge:
    minimum data exchange during FFTs selected (reduces bandwidth)

 Broyden mixing: mesh for mixing (old mesh)
   NGX = 13   NGY = 13   NGZ = 13
  (NGX  = 56   NGY  = 56   NGZ  = 56)
  gives a total of   2197 points

 initial charge density was supplied:
 charge density of overlapping atoms calculated
 number of electron      12.0000000 magnetization
 keeping initial charge density in first step

 Maximum index for non-local projection operator         1821
 Maximum index for augmentation-charges          731 (set IRDMAX)

 First call to EWALD:  gamma=   0.438
 Maximum number of real-space cells 3x 3x 3
 Maximum number of reciprocal cells 3x 3x 3

--------------------------------------- Ionic step        1  -------------------------------------------

--------------------------------------- Iteration      1(   1)  ---------------------------------------

 eigenvalue-minimisations  : 15568
 total energy-change (2. order) :-0.2317530E+01  (-0.3829838E+03)
 number of electron      12.0000000 magnetization
 augmentation part       12.0000000 magnetization

 Free energy of the ion-electron system (eV)
  alpha Z        PSCENC =        -0.81160711
  Ewald energy   TEWEN  =      -293.74343254
  -Hartree energ DENC   =        -0.41049596
  -exchange      EXHF   =         0.00000000
  -V(xc)+E(xc)   XCENC  =      -104.98243983
  PAW double counting   =       264.80062850     -136.98248303
  entropy T*S    EENTRO =        -0.00026252
  eigenvalues    EBANDS =        55.65994536
  atomic energy  EATOM  =       214.15261729
  Solvation  Ediel_sol  =         0.00000000
  free energy    TOTEN  =        -2.31752983 eV

  energy without entropy =       -2.31726731  energy(sigma->0) =       -2.31744233

[...]

 Broyden mixing:
  rms(total) = 0.25925E+00    rms(broyden)= 0.25925E+00
  rms(prec ) = 0.46822E+00
  weight for this iteration     100.00

[...]

 eigenvalue-minimisations  : 15400
 total energy-change (2. order) : 0.5189650E-01  (-0.5477733E-03)
 number of electron      11.9999999 magnetization
 augmentation part       -0.1505078 magnetization

[...]

 eigenvalues of (default mixing * dielectric matrix)
  average eigenvalue GAMMA=   2.3796
  2.3796

[...]

 eigenvalue-minimisations  : 15400
 total energy-change (2. order) :-0.1065780E-05  (-0.2228044E-05)
 number of electron      11.9999999 magnetization
 augmentation part       -0.1550073 magnetization

[...]

 Broyden mixing:
  rms(total) = 0.49098E-03    rms(broyden)= 0.49098E-03
  rms(prec ) = 0.49596E-03
  weight for this iteration     100.00

 eigenvalues of (default mixing * dielectric matrix)
  average eigenvalue GAMMA=   2.1167
  4.4973  2.6223  2.6223  1.0909  1.0909  0.7766

[...]

--------------------------------------- Iteration      1(  12)  ---------------------------------------

 eigenvalue-minimisations  : 11460
 total energy-change (2. order) : 0.7333375E-07  (-0.1188150E-06)
 number of electron      11.9999999 magnetization
 augmentation part       -0.1550768 magnetization

 Free energy of the ion-electron system (eV)
  alpha Z        PSCENC =        -0.81160711
  Ewald energy   TEWEN  =      -293.74343254
  -Hartree energ DENC   =        -0.41644365
  -exchange      EXHF   =         0.00000000
  -V(xc)+E(xc)   XCENC  =      -104.54907282
  PAW double counting   =       560.01327154     -432.24277787
  entropy T*S    EENTRO =         0.00222535
  eigenvalues    EBANDS =        42.60869088
  atomic energy  EATOM  =       214.15261729
  Solvation  Ediel_sol  =         0.00000000
  free energy    TOTEN  =       -14.98652892 eV

  energy without entropy =      -14.98875427  energy(sigma->0) =      -14.98727070

 average (electrostatic) potential at core
  the test charge radii are     1.0406
  (the norm of the test charge is              1.0000)
       1 -72.6664       2 -72.6664       3 -72.6664       4 -72.6664

 E-fermi :   7.9808     XC(G=0): -10.1848     alpha+bet :-14.8279

 Fermi energy:         7.9807738402

 k-point     1 :       0.0250    0.0250    0.0250
  band No.  band energies     occupation
      1      -3.1287      2.00000
      2       4.8895      2.00000
      3       4.9610      2.00000
      4       4.9610      2.00000
      5       6.4429      2.00000
      6       6.5449      2.00000
      7       6.5449      2.00000
      8      12.7338     -0.00000
      9      12.7339     -0.00000
     10      12.8016     -0.00000
     11      13.5294      0.00000
     12      13.5295      0.00000
     13      13.6211      0.00000
     14      13.9191      0.00000

[...]

 k-point   550 :       0.4750    0.4750    0.4750
  band No.  band energies     occupation
      1       2.8464      2.00000
      2       3.2627      2.00000
      3       3.2665      2.00000
      4       3.2665      2.00000
      5       3.7431      2.00000
      6       3.7431      2.00000
      7       3.7469      2.00000
      8       4.1609      2.00000
      9      18.7192      0.00000
     10      18.7738      0.00000
     11      18.7786      0.00000
     12      18.8362      0.00000
     13      18.8419      0.00000
     14      18.9066      0.00000

 soft charge-density along one line, spin component           1
         0         1         2         3         4         5         6         7         8         9
 total charge-density along one line

------------------------ aborting loop because EDIFF is reached ----------------------------------------

  FORCE on cell =-STRESS in cart. coord.  units (eV):
  Direction    XX          YY          ZZ          XY          YZ          ZX
  Alpha Z    -0.81161    -0.81161    -0.81161
  Ewald     -97.89101   -97.89101   -97.96154    -0.00000     0.00000     0.00000
  Hartree     0.13638     0.13638     0.14364    -0.00000    -0.00000    -0.00000
  E(xc)     -34.22783   -34.22783   -34.22005     0.00000    -0.00000    -0.00000
  Local       1.30496     1.30496     1.38421    -0.00000     0.00000     0.00000
  n-local    74.64868    76.50357    75.48627     0.57790     0.82382     0.32248
  augment    -4.13923    -4.13923    -4.13267     0.00000    -0.00000     0.00000
  Kinetic    57.86290    62.05090    59.83151    -3.01772    -6.20722     0.51719
  Fock        0.00000     0.00000     0.00000     0.00000     0.00000     0.00000
  Total      -0.09530    -0.09530    -0.28024    -0.00000    -0.00000    -0.00000
  in kB      -2.30601    -2.30601    -6.78083    -0.00000    -0.00000    -0.00000

 VOLUME and BASIS-vectors are now :
  energy-cutoff  :      400.00
  volume of cell :       66.22
      direct lattice vectors                 reciprocal lattice vectors
     4.038929693  0.000000000  0.000000000     0.247590346  0.000000000 -0.000000000
    -0.000000000  4.038929693  0.000000000     0.000000000  0.247590346 -0.000000000
     0.000000000  0.000000000  4.059074106     0.000000000 -0.000000000  0.246361602

  length of vectors
     4.038929693  4.038929693  4.059074106     0.247590346  0.247590346  0.246361602

 FORCES acting on ions
    electron-ion (+dipol)            ewald-force                    non-local-force                 convergence-correction
   0.208E-15 -.307E-14 -.106E-14   0.130E-14 -.356E-15 -.545E-15   -.556E-25 -.936E-25 -.295E-25   -.197E-15 -.262E-16 -.202E-15
   0.931E-15 -.563E-14 -.483E-14   0.131E-14 0.168E-15 0.303E-15   0.277E-24 -.638E-25 0.802E-26   -.188E-15 0.478E-16 0.210E-15
   -.522E-14 -.223E-14 -.383E-13   -.122E-14 -.228E-15 0.314E-15   -.382E-25 0.801E-26 0.102E-25   0.256E-15 -.191E-16 0.234E-15
   -.496E-14 -.106E-13 0.165E-13   -.122E-14 0.296E-15 -.208E-15   -.110E-25 0.152E-25 -.442E-25   0.252E-15 0.349E-16 -.204E-15
   -.904E-14 -.215E-13 -.277E-13   0.170E-15 -.119E-15 -.135E-15   0.172E-24 -.134E-24 -.555E-25   0.124E-15 0.375E-16 0.383E-16

 POSITION                                       TOTAL-FORCE (eV/Angst)
      0.00000      0.00000      0.00000         0.000000     -0.000000      0.000000
      0.00000      2.01946      2.02954         0.000000      0.000000      0.000000
      2.01946      0.00000      2.02954        -0.000000      0.000000     -0.000000
      2.01946      2.01946      0.00000         0.000000     -0.000000     -0.000000
    total drift:                               -0.000000     -0.000000     -0.000000

  FREE ENERGIE OF THE ION-ELECTRON SYSTEM (eV)
  free  energy   TOTEN  =       -14.98652892 eV

  energy  without entropy=      -14.98875427  energy(sigma->0) =      -14.98727070

 reached required accuracy - stopping structural energy minimisation