 vasp.6.4.2 20Jul23 (build Apr 22 2024 22:35:45) complex
 executed on             LinuxGNU date 2024.05.26  16:49:39

 INCAR:
   ALGO = Fast
   EDIFF = 1e-06
   ENCUT = 400
   IBRION = 2
   ISIF = 2
   ISMEAR = 1
   KSPACING = 0.08
   LCHARG = False
   LREAL = Auto
   LWAVE = False
   NELM = 60
   NELMIN = 4
   NSW = 100
   PREC = Accurate
   SIGMA = 0.2
   SYSTEM = Al fcc relaxation

 POTCAR:    PAW_PBE Al 04Jan2001
 POTCAR:    PAW_PBE Al 04Jan2001
   VRHFIN =Al: s2p1

   TITEL  = PAW_PBE Al 04Jan2001
   POMASS =   26.981; ZVAL   =    3.000    mass and valenz
   ENMAX  =  240.300; ENMIN  =  180.225 eV

 Optimization of the real space projectors (new method)

 maximal supplied QI-value         = 19.84
 optimisation between [QCUT,QGAM] = [ 10.12, 20.44] = [ 28.68,116.96] Ry
 Optimized for a Real-space Cutoff    1.38 Angstroem

   l    n(q)    QCUT    max X(q) W(low)/X(q) W(high)/X(q)  e(spline)
   0      8    10.119   176.870    0.39E-04    0.93E-04    0.54E-07
   0      8    10.119   105.762    0.37E-04    0.91E-04    0.53E-07
   1      8    10.119    55.370    0.18E-03    0.13E-03    0.19E-06
   1      8    10.119    20.208    0.17E-03    0.12E-03    0.18E-06
  PAW_PBE Al 04Jan2001                  :

 POSCAR: Al4
  positions in direct lattice
 exchange correlation table for  LEXCH =        8
   RHO(1)=    0.500       N(1)  =     2000
   RHO(2)=  100.500       N(2)  =     4000

 ion  position               nearest neighbor table
   1  0.000  0.000  0.000-   4 2.84   4 2.84   2 2.86   3 2.86   2 2.86   2 2.86   2 2.86   3 2.86
                             3 2.86   3 2.86   4 2.87   4 2.87
   2  0.000  0.500  0.500-   3 2.84   3 2.84   1 2.86   4 2.86   1 2.86   1 2.86   1 2.86   4 2.86
                             4 2.86   4 2.86   3 2.87   3 2.87
   3  0.500  0.000  0.500-   2 2.84   2 2.84   1 2.86   4 2.86   1 2.86   4 2.86   4 2.86   1 2.86
                             4 2.86   1 2.86   2 2.87   2 2.87
   4  0.500  0.500  0.000-   1 2.84   1 2.84   2 2.86   3 2.86   2 2.86   3 2.86   3 2.86   3 2.86
                             2 2.86   2 2.86   1 2.87   1 2.87

  LATTYP: Found a base centered orthorhombic cell.
 ALAT       =     5.6832778457
 B/A-ratio  =     1.0100505038
 C/A-ratio  =     0.7106690545

  Lattice vectors:

 A1 = (  -0.0403892969,  -4.0387277416,   0.0000000000)
 A2 = (   4.0389296932,   0.0000000000,   0.0000000000)
 A3 = (   0.0000000000,   0.0000000000,   4.0389296932)

Analysis of symmetry for initial positions (statically):
 Subroutine PRICEL returns following result:

  LATTYP: Found a body centered orthorhombic cell.
 ALAT       =     2.8416389229
 B/A-ratio  =     1.0100505038
 C/A-ratio  =     1.4213381090

[...]

   4 primitive cells build up your supercell.

 Routine SETGRP: Setting up the symmetry group for a
 base centered orthorhombic supercell.

 Subroutine GETGRP returns: Found  8 space group operations
 (whereof  8 operations were pure point group operations)
 out of a pool of  8 trial point group operations.

The static configuration has the point symmetry D_2h.

Analysis of symmetry for dynamics (positions and initial velocities):
 Subroutine PRICEL returns following result:

  LATTYP: Found a body centered orthorhombic cell.
 ALAT       =     2.8416389229
 B/A-ratio  =     1.0100505038
 C/A-ratio  =     1.4213381090

  Lattice vectors:

 A1 = (   2.0194648466,   0.0000000000,  -2.0194648466)
 A2 = (  -2.0194648466,   0.0000000000,  -2.0194648466)
 A3 = (   0.0201946485,   2.0193638708,   2.0194648466)

   4 primitive cells build up your supercell.

 Routine SETGRP: Setting up the symmetry group for a
 base centered orthorhombic supercell.

 Subroutine GETGRP returns: Found  8 space group operations
 (whereof  8 operations were pure point group operations)
 out of a pool of  8 trial point group operations.

The dynamic configuration has the point symmetry D_2h.

 Subroutine INISYM returns: Found  8 space group operations
 (whereof  8 operations are pure point group operations),
 and found     4 'primitive' translations

                                     Primitive cell

  volume of cell :      16.4709

  direct lattice vectors                    reciprocal lattice vectors
     2.019464847  0.000000000 -2.019464847     0.247590346  0.245126699 -0.247590346
    -2.019464847  0.000000000 -2.019464847    -0.247590346  0.250078754 -0.247590346
     0.020194648  2.019363871  2.019464847     0.000000000  0.495205453  0.000000000

  length of vectors
     2.855954575  2.855954575  2.855954575     0.427421405  0.430280539  0.495205453

  position of ions in fractional coordinates (direct lattice)
     0.000000000  0.000000000  0.000000000

  ion indices of the primitive-cell ions
   primitive index   ion index
                 1           1

 KPOINTS: Automatic kpoint scheme

Automatic generation of k-mesh.
 Grid dimensions read from file:
 generate k-points for:   20   20   20

 Generating k-lattice:

  Cartesian coordinates                     Fractional coordinates (reciprocal lattice)
     0.012379517 -0.000123801 -0.000000000     0.050000000 -0.000000000 -0.000000000
     0.000000000  0.012380136 -0.000000000     0.000000000  0.050000000  0.000000000
     0.000000000  0.000000000  0.012379517     0.000000000  0.000000000  0.050000000

  Length of vectors
     0.012380136  0.012380136  0.012379517

  Shift w.r.t. Gamma in fractional coordinates (k-lattice)
     0.500000000  0.500000000  0.500000000

 Subroutine IBZKPT returns following result:

 Found   1100 irreducible k-points:

 Following reciprocal coordinates:
            Coordinates               Weight
  0.025000  0.025000  0.025000      4.000000
  0.075000  0.025000  0.025000      8.000000
  0.125000  0.025000  0.025000      8.000000
  0.175000  0.025000  0.025000      8.000000
  0.225000  0.025000  0.025000      8.000000
  0.275000  0.025000  0.025000      8.000000
  0.325000  0.025000  0.025000      8.000000
  0.375000  0.025000  0.025000      8.000000
  0.425000  0.025000  0.025000      8.000000
  0.475000  0.025000  0.025000      8.000000
 -0.475000  0.025000  0.025000      8.000000
 -0.425000  0.025000  0.025000      8.000000
 -0.375000  0.025000  0.025000      8.000000
 -0.325000  0.025000  0.025000      8.000000
 -0.275000  0.025000  0.025000      8.000000
 -0.225000  0.025000  0.025000      8.000000
 -0.175000  0.025000  0.025000      8.000000
 -0.125000  0.025000  0.025000      8.000000
 -0.075000  0.025000  0.025000      8.000000
 -0.025000  0.025000  0.025000      4.000000
  0.075000  0.075000  0.025000      4.000000
  0.125000  0.075000  0.025000      8.000000
  0.175000  0.075000  0.025000      8.000000
  0.225000  0.075000  0.025000      8.000000
  0.275000  0.075000  0.025000      8.000000
  0.325000  0.075000  0.025000      8.000000
  0.375000  0.075000  0.025000      8.000000
  0.425000  0.075000  0.025000      8.000000
  0.475000  0.075000  0.025000      8.000000
 -0.475000  0.075000  0.025000      8.000000
 -0.425000  0.075000  0.025000      8.000000
 -0.375000  0.075000  0.025000      8.000000
 -0.325000  0.075000  0.025000      8.000000
 -0.275000  0.075000  0.025000      8.000000
 -0.225000  0.075000  0.025000      8.000000
 -0.175000  0.075000  0.025000      8.000000
 -0.125000  0.075000  0.025000      8.000000
 -0.075000  0.075000  0.025000      4.000000
  0.125000  0.125000  0.025000      4.000000
  0.175000  0.125000  0.025000      8.000000
  0.225000  0.125000  0.025000      8.000000
  0.275000  0.125000  0.025000      8.000000
  0.325000  0.125000  0.025000      8.000000
  0.375000  0.125000  0.025000      8.000000
  0.425000  0.125000  0.025000      8.000000
  0.475000  0.125000  0.025000      8.000000
 -0.475000  0.125000  0.025000      8.000000
 -0.425000  0.125000  0.025000      8.000000
 -0.375000  0.125000  0.025000      8.000000
 -0.325000  0.125000  0.025000      8.000000
 -0.275000  0.125000  0.025000      8.000000
 -0.225000  0.125000  0.025000      8.000000
 -0.175000  0.125000  0.025000      8.000000
 -0.125000  0.125000  0.025000      4.000000
  0.175000  0.175000  0.025000      4.000000
  0.225000  0.175000  0.025000      8.000000
  0.275000  0.175000  0.025000      8.000000
  0.325000  0.175000  0.025000      8.000000
  0.375000  0.175000  0.025000      8.000000
  0.425000  0.175000  0.025000      8.000000
[...]
 -0.425000  0.325000  0.475000      8.000000
 -0.375000  0.325000  0.475000      8.000000
 -0.325000  0.325000  0.475000      4.000000
  0.375000  0.375000  0.475000      4.000000
  0.425000  0.375000  0.475000      8.000000
  0.475000  0.375000  0.475000      8.000000
 -0.475000  0.375000  0.475000      8.000000
 -0.425000  0.375000  0.475000      8.000000
 -0.375000  0.375000  0.475000      4.000000
  0.425000  0.425000  0.475000      4.000000
  0.475000  0.425000  0.475000      8.000000
 -0.475000  0.425000  0.475000      8.000000
 -0.425000  0.425000  0.475000      4.000000
  0.475000  0.475000  0.475000      4.000000
 -0.475000  0.475000  0.475000      4.000000

 Following cartesian coordinates:
            Coordinates               Weight
  0.006190  0.006128  0.006190      4.000000
  0.018569  0.006004  0.006190      8.000000
  0.030949  0.005881  0.006190      8.000000
  0.043328  0.005757  0.006190      8.000000
  0.055708  0.005633  0.006190      8.000000
  0.068087  0.005509  0.006190      8.000000
  0.080467  0.005385  0.006190      8.000000
  0.092846  0.005262  0.006190      8.000000
  0.105226  0.005138  0.006190      8.000000
  0.117605  0.005014  0.006190      8.000000
 -0.117605  0.007366  0.006190      8.000000
 -0.105226  0.007242  0.006190      8.000000
 -0.092846  0.007119  0.006190      8.000000
 -0.080467  0.006995  0.006190      8.000000
 -0.068087  0.006871  0.006190      8.000000
 -0.055708  0.006747  0.006190      8.000000
 -0.043328  0.006623  0.006190      8.000000
 -0.030949  0.006500  0.006190      8.000000
 -0.018569  0.006376  0.006190      8.000000
 -0.006190  0.006252  0.006190      4.000000
  0.018569  0.018385  0.006190      4.000000
  0.030949  0.018261  0.006190      8.000000
  0.043328  0.018137  0.006190      8.000000
  0.055708  0.018013  0.006190      8.000000
  0.068087  0.017889  0.006190      8.000000
  0.080467  0.017765  0.006190      8.000000
  0.092846  0.017642  0.006190      8.000000
  0.105226  0.017518  0.006190      8.000000
  0.117605  0.017394  0.006190      8.000000
 -0.117605  0.019746  0.006190      8.000000
 -0.105226  0.019623  0.006190      8.000000
 -0.092846  0.019499  0.006190      8.000000
 -0.080467  0.019375  0.006190      8.000000
 -0.068087  0.019251  0.006190      8.000000
 -0.055708  0.019127  0.006190      8.000000
 -0.043328  0.019004  0.006190      8.000000
 -0.030949  0.018880  0.006190      8.000000
 -0.018569  0.018756  0.006190      4.000000
  0.030949  0.030641  0.006190      4.000000
  0.043328  0.030517  0.006190      8.000000
  0.055708  0.030393  0.006190      8.000000
  0.068087  0.030269  0.006190      8.000000
  0.080467  0.030146  0.006190      8.000000
  0.092846  0.030022  0.006190      8.000000
  0.105226  0.029898  0.006190      8.000000
  0.117605  0.029774  0.006190      8.000000
 -0.117605  0.032126  0.006190      8.000000
[...]
  -0.27500000  0.02500000  0.02500000       0.001
  -0.22500000  0.02500000  0.02500000       0.001
  -0.17500000  0.02500000  0.02500000       0.001
  -0.12500000  0.02500000  0.02500000       0.001
  -0.07500000  0.02500000  0.02500000       0.001
  -0.02500000  0.02500000  0.02500000       0.001
   0.07500000  0.07500000  0.02500000       0.001
   0.12500000  0.07500000  0.02500000       0.001
   0.17500000  0.07500000  0.02500000       0.001
   0.22500000  0.07500000  0.02500000       0.001
   0.27500000  0.07500000  0.02500000       0.001
   0.32500000  0.07500000  0.02500000       0.001
   0.37500000  0.07500000  0.02500000       0.001
   0.42500000  0.07500000  0.02500000       0.001
   0.47500000  0.07500000  0.02500000       0.001
  -0.47500000  0.07500000  0.02500000       0.001
  -0.42500000  0.07500000  0.02500000       0.001
  -0.37500000  0.07500000  0.02500000       0.001
  -0.32500000  0.07500000  0.02500000       0.001
  -0.27500000  0.07500000  0.02500000       0.001
  -0.22500000  0.07500000  0.02500000       0.001
  -0.17500000  0.07500000  0.02500000       0.001
  -0.12500000  0.07500000  0.02500000       0.001
  -0.07500000  0.07500000  0.02500000       0.001
   0.12500000  0.12500000  0.02500000       0.001
   0.17500000  0.12500000  0.02500000       0.001
   0.22500000  0.12500000  0.02500000       0.001
   0.27500000  0.12500000  0.02500000       0.001
   0.32500000  0.12500000  0.02500000       0.001
   0.37500000  0.12500000  0.02500000       0.001
   0.42500000  0.12500000  0.02500000       0.001
   0.47500000  0.12500000  0.02500000       0.001
  -0.47500000  0.12500000  0.02500000       0.001
  -0.42500000  0.12500000  0.02500000       0.001
  -0.37500000  0.12500000  0.02500000       0.001
  -0.32500000  0.12500000  0.02500000       0.001
  -0.27500000  0.12500000  0.02500000       0.001
  -0.22500000  0.12500000  0.02500000       0.001
  -0.17500000  0.12500000  0.02500000       0.001
  -0.12500000  0.12500000  0.02500000       0.001
   0.17500000  0.17500000  0.02500000       0.001
   0.22500000  0.17500000  0.02500000       0.001
   0.27500000  0.17500000  0.02500000       0.001
   0.32500000  0.17500000  0.02500000       0.001
   0.37500000  0.17500000  0.02500000       0.001
   0.42500000  0.17500000  0.02500000       0.001
[...]
  -0.42500000  0.32500000  0.47500000       0.001
  -0.37500000  0.32500000  0.47500000       0.001
  -0.32500000  0.32500000  0.47500000       0.001
   0.37500000  0.37500000  0.47500000       0.001
   0.42500000  0.37500000  0.47500000       0.001
   0.47500000  0.37500000  0.47500000       0.001
  -0.47500000  0.37500000  0.47500000       0.001
  -0.42500000  0.37500000  0.47500000       0.001
  -0.37500000  0.37500000  0.47500000       0.001
   0.42500000  0.42500000  0.47500000       0.001
   0.47500000  0.42500000  0.47500000       0.001
  -0.47500000  0.42500000  0.47500000       0.001
  -0.42500000  0.42500000  0.47500000       0.001
   0.47500000  0.47500000  0.47500000       0.001
  -0.47500000  0.47500000  0.47500000       0.001

 position of ions in fractional coordinates (direct lattice)
   0.00000000  0.00000000  0.00000000
   0.00000000  0.50000000  0.50000000
   0.50000000  0.00000000  0.50000000
   0.50000000  0.50000000  0.00000000

 position of ions in cartesian coordinates  (Angst):
   0.00000000  0.00000000  0.00000000
   0.02019465  2.01936387  2.01946485
   2.01946485  0.00000000  2.01946485
   2.03965950  2.01936387  0.00000000

 k-point   1 :   0.0250 0.0250 0.0250  plane waves:    1211
 k-point   2 :   0.0750 0.0250 0.0250  plane waves:    1211
 k-point   3 :   0.1250 0.0250 0.0250  plane waves:    1210
 k-point   4 :   0.1750 0.0250 0.0250  plane waves:    1209
 k-point   5 :   0.2250 0.0250 0.0250  plane waves:    1206
 k-point   6 :   0.2750 0.0250 0.0250  plane waves:    1205
 k-point   7 :   0.3250 0.0250 0.0250  plane waves:    1200
 k-point   8 :   0.3750 0.0250 0.0250  plane waves:    1202
 k-point   9 :   0.4250 0.0250 0.0250  plane waves:    1203
 k-point  10 :   0.4750 0.0250 0.0250  plane waves:    1202
 k-point  11 :  -0.4750 0.0250 0.0250  plane waves:    1197
 k-point  12 :  -0.4250 0.0250 0.0250  plane waves:    1199
 k-point  13 :  -0.3750 0.0250 0.0250  plane waves:    1199
 k-point  14 :  -0.3250 0.0250 0.0250  plane waves:    1203
 k-point  15 :  -0.2750 0.0250 0.0250  plane waves:    1206
 k-point  16 :  -0.2250 0.0250 0.0250  plane waves:    1206
 k-point  17 :  -0.1750 0.0250 0.0250  plane waves:    1207
 k-point  18 :  -0.1250 0.0250 0.0250  plane waves:    1207
 k-point  19 :  -0.0750 0.0250 0.0250  plane waves:    1209
 k-point  20 :  -0.0250 0.0250 0.0250  plane waves:    1208
 k-point  21 :   0.0750 0.0750 0.0250  plane waves:    1212
 k-point  22 :   0.1250 0.0750 0.0250  plane waves:    1212
 k-point  23 :   0.1750 0.0750 0.0250  plane waves:    1212
 k-point  24 :   0.2250 0.0750 0.0250  plane waves:    1204
 k-point  25 :   0.2750 0.0750 0.0250  plane waves:    1203
 k-point  26 :   0.3250 0.0750 0.0250  plane waves:    1199
 k-point  27 :   0.3750 0.0750 0.0250  plane waves:    1200
 k-point  28 :   0.4250 0.0750 0.0250  plane waves:    1199
 k-point  29 :   0.4750 0.0750 0.0250  plane waves:    1199
 k-point  30 :  -0.4750 0.0750 0.0250  plane waves:    1195
 k-point  31 :  -0.4250 0.0750 0.0250  plane waves:    1198
 k-point  32 :  -0.3750 0.0750 0.0250  plane waves:    1201
 k-point  33 :  -0.3250 0.0750 0.0250  plane waves:    1198
 k-point  34 :  -0.2750 0.0750 0.0250  plane waves:    1204
 k-point  35 :  -0.2250 0.0750 0.0250  plane waves:    1207
 k-point  36 :  -0.1750 0.0750 0.0250  plane waves:    1207
 k-point  37 :  -0.1250 0.0750 0.0250  plane waves:    1208
 k-point  38 :  -0.0750 0.0750 0.0250  plane waves:    1212
 k-point  39 :   0.1250 0.1250 0.0250  plane waves:    1213
 k-point  40 :   0.1750 0.1250 0.0250  plane waves:    1216
 k-point  41 :   0.2250 0.1250 0.0250  plane waves:    1202
 k-point  42 :   0.2750 0.1250 0.0250  plane waves:    1199
 k-point  43 :   0.3250 0.1250 0.0250  plane waves:    1195
 k-point  44 :   0.3750 0.1250 0.0250  plane waves:    1196
 k-point  45 :   0.4250 0.1250 0.0250  plane waves:    1198
 k-point  46 :   0.4750 0.1250 0.0250  plane waves:    1195
 k-point  47 :  -0.4750 0.1250 0.0250  plane waves:    1191
 k-point  48 :  -0.4250 0.1250 0.0250  plane waves:    1192
 k-point  49 :  -0.3750 0.1250 0.0250  plane waves:    1197
 k-point  50 :  -0.3250 0.1250 0.0250  plane waves:    1202
 k-point  51 :  -0.2750 0.1250 0.0250  plane waves:    1204
 k-point  52 :  -0.2250 0.1250 0.0250  plane waves:    1209
 k-point  53 :  -0.1750 0.1250 0.0250  plane waves:    1205
 k-point  54 :  -0.1250 0.1250 0.0250  plane waves:    1211
 k-point  55 :   0.1750 0.1750 0.0250  plane waves:    1208
 k-point  56 :   0.2250 0.1750 0.0250  plane waves:    1202
 k-point  57 :   0.2750 0.1750 0.0250  plane waves:    1195
 k-point  58 :   0.3250 0.1750 0.0250  plane waves:    1193
 k-point  59 :   0.3750 0.1750 0.0250  plane waves:    1199
 k-point  60 :   0.4250 0.1750 0.0250  plane waves:    1200
[...]
 k-point *** :  -0.4250 0.3250 0.4750  plane waves:    1187
 k-point *** :  -0.3750 0.3250 0.4750  plane waves:    1192
 k-point *** :  -0.3250 0.3250 0.4750  plane waves:    1191
 k-point *** :   0.3750 0.3750 0.4750  plane waves:    1184
 k-point *** :   0.4250 0.3750 0.4750  plane waves:    1185
 k-point *** :   0.4750 0.3750 0.4750  plane waves:    1189
 k-point *** :  -0.4750 0.3750 0.4750  plane waves:    1187
 k-point *** :  -0.4250 0.3750 0.4750  plane waves:    1186
 k-point *** :  -0.3750 0.3750 0.4750  plane waves:    1195
 k-point *** :   0.4250 0.4250 0.4750  plane waves:    1176
 k-point *** :   0.4750 0.4250 0.4750  plane waves:    1187
 k-point *** :  -0.4750 0.4250 0.4750  plane waves:    1184
 k-point *** :  -0.4250 0.4250 0.4750  plane waves:    1175
 k-point *** :   0.4750 0.4750 0.4750  plane waves:    1208
 k-point *** :  -0.4750 0.4750 0.4750  plane waves:    1197

 maximum and minimum number of plane-waves per node :      1216     1175

 maximum number of plane-waves:      1216
 maximum index in each direction:
   IXMAX=    7   IYMAX=    6   IZMAX=    6
   IXMIN=   -7   IYMIN=   -7   IZMIN=   -7

 serial   3D FFT for wavefunctions
 parallel 3D FFT for charge:
    minimum data exchange during FFTs selected (reduces bandwidth)

 Broyden mixing: mesh for mixing (old mesh)
   NGX = 13   NGY = 13   NGZ = 13
  (NGX  = 56   NGY  = 56   NGZ  = 56)
  gives a total of   2197 points

 initial charge density was supplied:
 charge density of overlapping atoms calculated
 number of electron      12.0000000 magnetization
 keeping initial charge density in first step

 Maximum index for non-local projection operator         1821
 Maximum index for augmentation-charges          743 (set IRDMAX)

 First call to EWALD:  gamma=   0.439
 Maximum number of real-space cells 3x 3x 3
 Maximum number of reciprocal cells 3x 3x 3

--------------------------------------- Ionic step        1  -------------------------------------------

--------------------------------------- Iteration      1(   1)  ---------------------------------------

 eigenvalue-minimisations  : 30982
 total energy-change (2. order) :-0.2289769E+01  (-0.3856272E+03)
 number of electron      12.0000000 magnetization
 augmentation part       12.0000000 magnetization

 Free energy of the ion-electron system (eV)
  alpha Z        PSCENC =        -0.81569583
  Ewald energy   TEWEN  =      -294.23295354
  -Hartree energ DENC   =        -0.40348516
  -exchange      EXHF   =         0.00000000
  -V(xc)+E(xc)   XCENC  =      -104.94620838
  PAW double counting   =       264.80062850     -136.98248303
  entropy T*S    EENTRO =        -0.00094586
  eigenvalues    EBANDS =        56.13875718
  atomic energy  EATOM  =       214.15261729
  Solvation  Ediel_sol  =         0.00000000
  free energy    TOTEN  =        -2.28976883 eV

  energy without entropy =       -2.28882297  energy(sigma->0) =       -2.28945355

[...]

 Broyden mixing:
  rms(total) = 0.26100E+00    rms(broyden)= 0.26100E+00
  rms(prec ) = 0.47081E+00
  weight for this iteration     100.00

[...]

 eigenvalue-minimisations  : 30800
 total energy-change (2. order) : 0.5207362E-01  (-0.5390379E-03)
 number of electron      12.0000000 magnetization
 augmentation part       -0.1500807 magnetization

[...]

 eigenvalues of (default mixing * dielectric matrix)
  average eigenvalue GAMMA=   2.3803
  2.3803

[...]

 eigenvalue-minimisations  : 30800
 total energy-change (2. order) :-0.9988925E-06  (-0.2219510E-05)
 number of electron      12.0000000 magnetization
 augmentation part       -0.1545602 magnetization

[...]

 Broyden mixing:
  rms(total) = 0.52424E-03    rms(broyden)= 0.52424E-03
  rms(prec ) = 0.52891E-03
  weight for this iteration     100.00

 eigenvalues of (default mixing * dielectric matrix)
  average eigenvalue GAMMA=   2.1286
  4.5503  2.6232  2.6232  1.0978  1.0978  0.7793

[...]

--------------------------------------- Iteration      1(  12)  ---------------------------------------

 eigenvalue-minimisations  : 22895
 total energy-change (2. order) : 0.9943079E-07  (-0.1172310E-06)
 number of electron      12.0000000 magnetization
 augmentation part       -0.1546289 magnetization

 Free energy of the ion-electron system (eV)
  alpha Z        PSCENC =        -0.81569583
  Ewald energy   TEWEN  =      -294.23295354
  -Hartree energ DENC   =        -0.42034439
  -exchange      EXHF   =         0.00000000
  -V(xc)+E(xc)   XCENC  =      -104.50827037
  PAW double counting   =       564.97738730     -437.21021765
  entropy T*S    EENTRO =         0.00216566
  eigenvalues    EBANDS =        43.06903468
  atomic energy  EATOM  =       214.15261729
  Solvation  Ediel_sol  =         0.00000000
  free energy    TOTEN  =       -14.98627684 eV

  energy without entropy =      -14.98844250  energy(sigma->0) =      -14.98699873

 average (electrostatic) potential at core
  the test charge radii are     1.0406
  (the norm of the test charge is              1.0000)
       1 -72.6068       2 -72.6068       3 -72.6068       4 -72.6068

 E-fermi :   8.0337     XC(G=0): -10.2029     alpha+bet :-14.9026

 Fermi energy:         8.0336769634

 k-point     1 :       0.0250    0.0250    0.0250
  band No.  band energies     occupation
      1      -3.1112      2.00000
      2       4.9772      2.00000
      3       4.9800      2.00000
      4       4.9800      2.00000
      5       6.5605      2.00000
      6       6.5605      2.00000
      7       6.5615      2.00000
      8      12.7231     -0.00000
      9      12.8205     -0.00000
     10      12.8205     -0.00000
     11      13.6363      0.00000
     12      13.6364      0.00000
     13      13.8178      0.00000
     14      13.9370      0.00000

[...]

 k-point  1100 :      -0.4750    0.4750    0.4750
  band No.  band energies     occupation
      1       2.9193      2.00000
      2       3.2644      2.00000
      3       3.2644      2.00000
      4       3.3328      2.00000
      5       3.7358      2.00000
      6       3.7358      2.00000
      7       3.8432      2.00000
      8       4.2544      2.00000
      9      18.7733      0.00000
     10      18.9110      0.00000
     11      18.9242      0.00000
     12      18.9460      0.00000
     13      19.0039      0.00000
     14      19.0713      0.00000

 soft charge-density along one line, spin component           1
         0         1         2         3         4         5         6         7         8         9
 total charge-density along one line

------------------------ aborting loop because EDIFF is reached ----------------------------------------

  FORCE on cell =-STRESS in cart. coord.  units (eV):
  Direction    XX          YY          ZZ          XY          YZ          ZX
  Alpha Z    -0.81570    -0.81570    -0.81570
  Ewald     -98.07959   -98.06741   -98.08608    -0.60866     0.00000     0.00000
  Hartree     0.14000     0.14001     0.14030    -0.00047    -0.00000    -0.00000
  E(xc)     -34.28012   -34.28048   -34.27976     0.01786     0.00000     0.00000
  Local       1.41783     1.40547     1.42376     0.61784     0.00000     0.00000
  n-local    74.71571    76.56860    75.63694    -0.19869     0.84713    -0.03036
  augment    -4.12475    -4.12495    -4.12438     0.00987     0.00000    -0.00000
  Kinetic    57.91078    62.32120    60.10101     0.01609    -6.25415    -0.03672
  Fock        0.00000     0.00000     0.00000     0.00000     0.00000     0.00000
  Total       0.01368     0.01723    -0.00393    -0.17747     0.00000     0.00000
  in kB       0.33274     0.41906    -0.09559    -4.31572     0.00000     0.00000

 VOLUME and BASIS-vectors are now :
  energy-cutoff  :      400.00
  volume of cell :       65.88
      direct lattice vectors                 reciprocal lattice vectors
     4.038929693  0.000000000  0.000000000     0.247590346 -0.002476027 -0.000000000
     0.040389297  4.038727742  0.000000000     0.000000000  0.247602726 -0.000000000
     0.000000000  0.000000000  4.038929693     0.000000000  0.000000000  0.247590346

  length of vectors
     4.038929693  4.038929693  4.038929693     0.247602726  0.247602726  0.247590346

 FORCES acting on ions
    electron-ion (+dipol)            ewald-force                    non-local-force                 convergence-correction
   -.420E-15 -.202E-14 -.659E-15   0.141E-14 0.685E-15 -.940E-15   -.222E-25 -.260E-24 0.115E-26   -.486E-16 -.414E-16 -.171E-15
   -.105E-14 -.522E-14 -.443E-14   0.160E-14 -.736E-15 0.346E-15   0.566E-25 -.210E-24 -.670E-26   -.495E-16 0.591E-16 0.181E-15
   -.601E-14 -.134E-14 -.413E-13   -.150E-14 0.849E-15 0.357E-15   0.995E-25 -.366E-25 -.465E-26   0.974E-16 -.343E-16 0.205E-15
   -.496E-14 -.113E-13 0.170E-13   -.130E-14 -.573E-15 0.300E-15   0.396E-25 0.111E-24 -.669E-26   0.966E-16 0.523E-16 -.172E-15
   -.124E-13 -.199E-13 -.293E-13   0.212E-15 0.225E-15 0.634E-16   0.173E-24 -.396E-24 -.169E-25   0.959E-16 0.357E-16 0.429E-16

 POSITION                                       TOTAL-FORCE (eV/Angst)
      0.00000      0.00000      0.00000        -0.000000     -0.000000     -0.000000
      0.02019      2.01936      2.01946        -0.000000     -0.000000     -0.000000
      2.01946      0.00000      2.01946         0.000000      0.000000      0.000000
      2.03966      2.01936      0.00000        -0.000000     -0.000000      0.000000
    total drift:                               -0.000000     -0.000000     -0.000000

  FREE ENERGIE OF THE ION-ELECTRON SYSTEM (eV)
  free  energy   TOTEN  =       -14.98627684 eV

  energy  without entropy=      -14.98844250  energy(sigma->0) =      -14.98699873

 reached required accuracy - stopping structural energy minimisation