 vasp.5.4.4.18Apr17-6-g9f103f2a35 (build Nov 07 2022 11:18:25) complex

 executed on             LinuxIFC date 2024.05.28  09:34:17

 INCAR:
 POTCAR:    PAW_PBE Al 04Jan2001

   TITEL  = PAW_PBE Al 04Jan2001
   POMASS =   26.981; ZVAL   =    3.000    mass and valenz
   ENMAX  =  240.300; ENMIN  =  180.225 eV

 Optimization of the real space projectors (new method)

 maximal supplied QI-value         = 19.84
 optimisation between [QCUT,QGAM] = [ 10.12, 20.44] = [ 28.68,116.96] Ry
 Optimized for a Real-space Cutoff    1.38 Angstroem

   l    n(q)    QCUT    max X(q) W(low)/X(q) W(high)/X(q)  e(spline)
   0      8    10.119   176.870    0.39E-04    0.93E-04    0.54E-07
   0      8    10.119   105.762    0.37E-04    0.91E-04    0.53E-07
   1      8    10.119    55.370    0.18E-03    0.13E-03    0.19E-06
   1      8    10.119    20.208    0.17E-03    0.12E-03    0.18E-06
  PAW_PBE Al 04Jan2001                  :

 POSCAR: Al6
  positions in direct lattice
 exchange correlation table for  LEXCH =        8
   RHO(1)=    0.500       N(1)  =     2000
   RHO(2)=  100.500       N(2)  =     4000

 ion  position               nearest neighbor table
   1  0.000  0.000  0.875-   4 2.86   4 2.86   2 2.86   2 2.86   2 2.86   4 2.86   2 2.86   4 2.86

   2  0.500  0.500  0.958-   1 2.86   1 2.86   1 2.86   1 2.86
   3  0.000  0.000  0.708-   4 2.86   4 2.86   6 2.86   6 2.86   4 2.86   4 2.86   6 2.86   6 2.86

[...]

   5  0.000  0.000  0.542-   6 2.86   6 2.86   6 2.86   6 2.86
   6  0.500  0.500  0.625-   5 2.86   5 2.86   3 2.86   3 2.86   3 2.86   5 2.86   3 2.86   5 2.86

  LATTYP: Found a simple monoclinic cell.
 ALAT       =    24.4024590158
 B/A-ratio  =     0.1170355239
 C/A-ratio  =     1.9896522853
 COS(beta)  =    -0.9982923852

  Lattice vectors:

 A1 = (  -2.8659545748,   0.0000000000, -24.2335781591)
 A2 = (   0.0000000000,  -2.8559545748,   0.0000000000)
 A3 = (   2.8759545748,   0.0000000000,  48.4671563182)

Analysis of symmetry for initial positions (statically):
 Subroutine PRICEL returns:
 Original cell was already a primitive cell.

 Routine SETGRP: Setting up the symmetry group for a
 simple monoclinic supercell.

 Subroutine GETGRP returns: Found  4 space group operations
 (whereof  2 operations were pure point group operations)
 out of a pool of  4 trial point group operations.

The static configuration has the point symmetry C_1h.
 The point group associated with its full space group is C_2h.

Analysis of symmetry for dynamics (positions and initial velocities):
 Subroutine PRICEL returns:
 Original cell was already a primitive cell.

 Routine SETGRP: Setting up the symmetry group for a
 simple monoclinic supercell.

 Subroutine GETGRP returns: Found  4 space group operations
 (whereof  2 operations were pure point group operations)
 out of a pool of  4 trial point group operations.

The dynamic configuration has the point symmetry C_1h.
 The point group associated with its full space group is C_2h.

 Subroutine INISYM returns: Found  4 space group operations
 (whereof  2 operations are pure point group operations),
 and found     1 'primitive' translations

 KPOINTS: Automatic kpoint scheme

Automatic generation of k-mesh.
Space group operators:
 irot       det(A)        alpha          n_x          n_y          n_z        tau_x        tau_y        tau_z
    1     1.000000     0.000000     1.000000     0.000000     0.000000     0.000000     0.000000     0.000000
    2    -1.000000   179.999999     0.000000     1.000000     0.000000     0.000000     0.000000     0.000000
    3    -1.000000     0.000000     1.000000     0.000000     0.000000    -0.500000    -0.500000    -0.500000
    4     1.000000   179.999999     0.000000     1.000000     0.000000    -0.500000    -0.500000    -0.500000

 Subroutine IBZKPT returns following result:

 Found    784 irreducible k-points:

 Following reciprocal coordinates:
            Coordinates               Weight
  0.017857  0.017857  0.125000      4.000000
  0.053571  0.017857  0.125000      4.000000
  0.089286  0.017857  0.125000      4.000000
  0.125000  0.017857  0.125000      4.000000
  0.160714  0.017857  0.125000      4.000000
  0.196429  0.017857  0.125000      4.000000
  0.232143  0.017857  0.125000      4.000000
  0.267857  0.017857  0.125000      4.000000
  0.303571  0.017857  0.125000      4.000000
  0.339286  0.017857  0.125000      4.000000
  0.375000  0.017857  0.125000      4.000000
  0.410714  0.017857  0.125000      4.000000
  0.446429  0.017857  0.125000      4.000000
  0.482143  0.017857  0.125000      4.000000
 -0.482143  0.017857  0.125000      4.000000
 -0.446429  0.017857  0.125000      4.000000
 -0.410714  0.017857  0.125000      4.000000
 -0.375000  0.017857  0.125000      4.000000
 -0.339286  0.017857  0.125000      4.000000
 -0.303571  0.017857  0.125000      4.000000
 -0.267857  0.017857  0.125000      4.000000
 -0.232143  0.017857  0.125000      4.000000
 -0.196429  0.017857  0.125000      4.000000
 -0.160714  0.017857  0.125000      4.000000
 -0.125000  0.017857  0.125000      4.000000
 -0.089286  0.017857  0.125000      4.000000
 -0.053571  0.017857  0.125000      4.000000
 -0.017857  0.017857  0.125000      4.000000
  0.017857  0.053571  0.125000      4.000000
  0.053571  0.053571  0.125000      4.000000
  0.089286  0.053571  0.125000      4.000000
  0.125000  0.053571  0.125000      4.000000
  0.160714  0.053571  0.125000      4.000000
  0.196429  0.053571  0.125000      4.000000
  0.232143  0.053571  0.125000      4.000000
  0.267857  0.053571  0.125000      4.000000
  0.303571  0.053571  0.125000      4.000000
  0.339286  0.053571  0.125000      4.000000
  0.375000  0.053571  0.125000      4.000000
  0.410714  0.053571  0.125000      4.000000
  0.446429  0.053571  0.125000      4.000000
  0.482143  0.053571  0.125000      4.000000
 -0.482143  0.053571  0.125000      4.000000
 -0.446429  0.053571  0.125000      4.000000
 -0.410714  0.053571  0.125000      4.000000
 -0.375000  0.053571  0.125000      4.000000
 -0.339286  0.053571  0.125000      4.000000
 -0.303571  0.053571  0.125000      4.000000
 -0.267857  0.053571  0.125000      4.000000
 -0.232143  0.053571  0.125000      4.000000
 -0.196429  0.053571  0.125000      4.000000
 -0.160714  0.053571  0.125000      4.000000
 -0.125000  0.053571  0.125000      4.000000
 -0.089286  0.053571  0.125000      4.000000
 -0.053571  0.053571  0.125000      4.000000
 -0.017857  0.053571  0.125000      4.000000
  0.017857  0.089286  0.125000      4.000000
  0.053571  0.089286  0.125000      4.000000
  0.089286  0.089286  0.125000      4.000000
  0.125000  0.089286  0.125000      4.000000
[...]
  0.482143  0.482143  0.375000      4.000000
 -0.482143  0.482143  0.375000      4.000000
 -0.446429  0.482143  0.375000      4.000000
 -0.410714  0.482143  0.375000      4.000000
 -0.375000  0.482143  0.375000      4.000000
 -0.339286  0.482143  0.375000      4.000000
 -0.303571  0.482143  0.375000      4.000000
 -0.267857  0.482143  0.375000      4.000000
 -0.232143  0.482143  0.375000      4.000000
 -0.196429  0.482143  0.375000      4.000000
 -0.160714  0.482143  0.375000      4.000000
 -0.125000  0.482143  0.375000      4.000000
 -0.089286  0.482143  0.375000      4.000000
 -0.053571  0.482143  0.375000      4.000000
 -0.017857  0.482143  0.375000      4.000000

 Following cartesian coordinates:
            Coordinates               Weight
  0.006253  0.006253  0.005156      4.000000
  0.018758  0.006253  0.005150      4.000000
  0.031263  0.006253  0.005145      4.000000
  0.043768  0.006253  0.005140      4.000000
  0.056273  0.006253  0.005135      4.000000
  0.068779  0.006253  0.005130      4.000000
  0.081284  0.006253  0.005125      4.000000
  0.093789  0.006253  0.005119      4.000000
  0.106294  0.006253  0.005114      4.000000
  0.118799  0.006253  0.005109      4.000000
  0.131305  0.006253  0.005104      4.000000
  0.143810  0.006253  0.005099      4.000000
  0.156315  0.006253  0.005094      4.000000
  0.168820  0.006253  0.005088      4.000000
 -0.168820  0.006253  0.005228      4.000000
 -0.156315  0.006253  0.005223      4.000000
 -0.143810  0.006253  0.005217      4.000000
 -0.131305  0.006253  0.005212      4.000000
 -0.118799  0.006253  0.005207      4.000000
 -0.106294  0.006253  0.005202      4.000000
 -0.093789  0.006253  0.005197      4.000000
 -0.081284  0.006253  0.005192      4.000000
 -0.068779  0.006253  0.005187      4.000000
 -0.056273  0.006253  0.005181      4.000000
 -0.043768  0.006253  0.005176      4.000000
 -0.031263  0.006253  0.005171      4.000000
 -0.018758  0.006253  0.005166      4.000000
 -0.006253  0.006253  0.005161      4.000000
  0.006253  0.018758  0.005156      4.000000
  0.018758  0.018758  0.005150      4.000000
  0.031263  0.018758  0.005145      4.000000
  0.043768  0.018758  0.005140      4.000000
  0.056273  0.018758  0.005135      4.000000
  0.068779  0.018758  0.005130      4.000000
  0.081284  0.018758  0.005125      4.000000
  0.093789  0.018758  0.005119      4.000000
  0.106294  0.018758  0.005114      4.000000
  0.118799  0.018758  0.005109      4.000000
  0.131305  0.018758  0.005104      4.000000
  0.143810  0.018758  0.005099      4.000000
  0.156315  0.018758  0.005094      4.000000
  0.168820  0.018758  0.005088      4.000000
 -0.168820  0.018758  0.005228      4.000000
 -0.156315  0.018758  0.005223      4.000000
 -0.143810  0.018758  0.005217      4.000000
 -0.131305  0.018758  0.005212      4.000000
 -0.118799  0.018758  0.005207      4.000000
 -0.106294  0.018758  0.005202      4.000000
 -0.093789  0.018758  0.005197      4.000000
 -0.081284  0.018758  0.005192      4.000000
 -0.068779  0.018758  0.005187      4.000000
 -0.056273  0.018758  0.005181      4.000000
 -0.043768  0.018758  0.005176      4.000000
 -0.031263  0.018758  0.005171      4.000000
 -0.018758  0.018758  0.005166      4.000000
 -0.006253  0.018758  0.005161      4.000000
  0.006253  0.031263  0.005156      4.000000
  0.018758  0.031263  0.005150      4.000000
  0.031263  0.031263  0.005145      4.000000
  0.043768  0.031263  0.005140      4.000000
[...]
  0.168820  0.168820  0.015405      4.000000
 -0.168820  0.168820  0.015544      4.000000
 -0.156315  0.168820  0.015539      4.000000
 -0.143810  0.168820  0.015534      4.000000
 -0.131305  0.168820  0.015529      4.000000
 -0.118799  0.168820  0.015523      4.000000
 -0.106294  0.168820  0.015518      4.000000
 -0.093789  0.168820  0.015513      4.000000
 -0.081284  0.168820  0.015508      4.000000
 -0.068779  0.168820  0.015503      4.000000
 -0.056273  0.168820  0.015498      4.000000
 -0.043768  0.168820  0.015492      4.000000
 -0.031263  0.168820  0.015487      4.000000
 -0.018758  0.168820  0.015482      4.000000
 -0.006253  0.168820  0.015477      4.000000

 SYSTEM =  Al fcc relaxation
 POSCAR =  Al6

 Startparameter for this run:
   NWRITE =      2    write-flag & timer
   PREC   = accura    normal or accurate (medium, high low for compatibility)
   ISTART =      0    job   : 0-new  1-cont  2-samecut
   ICHARG =      2    charge: 1-file 2-atom 10-const
   ISPIN  =      1    spin polarized calculation?
   LNONCOLLINEAR =      F non collinear calculations
[...]
 k-point 42 :   0.4821 0.0536 0.1250  plane waves:    3579
 k-point 43 :  -0.4821 0.0536 0.1250  plane waves:    3578
 k-point 44 :  -0.4464 0.0536 0.1250  plane waves:    3575
 k-point 45 :  -0.4107 0.0536 0.1250  plane waves:    3574
 k-point 46 :  -0.3750 0.0536 0.1250  plane waves:    3576
 k-point 47 :  -0.3393 0.0536 0.1250  plane waves:    3577
 k-point 48 :  -0.3036 0.0536 0.1250  plane waves:    3583
 k-point 49 :  -0.2679 0.0536 0.1250  plane waves:    3586
 k-point 50 :  -0.2321 0.0536 0.1250  plane waves:    3599
 k-point 51 :  -0.1964 0.0536 0.1250  plane waves:    3613
 k-point 52 :  -0.1607 0.0536 0.1250  plane waves:    3624
 k-point 53 :  -0.1250 0.0536 0.1250  plane waves:    3640
 k-point 54 :  -0.0893 0.0536 0.1250  plane waves:    3640
 k-point 55 :  -0.0536 0.0536 0.1250  plane waves:    3642
 k-point 56 :  -0.0179 0.0536 0.1250  plane waves:    3643
 k-point 57 :   0.0179 0.0893 0.1250  plane waves:    3640
 k-point 58 :   0.0536 0.0893 0.1250  plane waves:    3641
 k-point 59 :   0.0893 0.0893 0.1250  plane waves:    3637
 k-point 60 :   0.1250 0.0893 0.1250  plane waves:    3634
[...]
 k-point 85 :   0.0179 0.1250 0.1250  plane waves:    3638
 k-point 86 :   0.0536 0.1250 0.1250  plane waves:    3639
 k-point 87 :   0.0893 0.1250 0.1250  plane waves:    3632
 k-point 88 :   0.1250 0.1250 0.1250  plane waves:    3628
 k-point 89 :   0.1607 0.1250 0.1250  plane waves:    3607
 k-point 90 :   0.1964 0.1250 0.1250  plane waves:    3602
 k-point 91 :   0.2321 0.1250 0.1250  plane waves:    3598
 k-point 92 :   0.2679 0.1250 0.1250  plane waves:    3585
 k-point 93 :   0.3036 0.1250 0.1250  plane waves:    3581
 k-point 94 :   0.3393 0.1250 0.1250  plane waves:    3575
 k-point 95 :   0.3750 0.1250 0.1250  plane waves:    3581
 k-point 96 :   0.4107 0.1250 0.1250  plane waves:    3580
 k-point 97 :   0.4464 0.1250 0.1250  plane waves:    3582
 k-point 98 :   0.4821 0.1250 0.1250  plane waves:    3583
 k-point 99 :  -0.4821 0.1250 0.1250  plane waves:    3585
 k-point ** :  -0.4464 0.1250 0.1250  plane waves:    3582
 k-point ** :  -0.4107 0.1250 0.1250  plane waves:    3581
 k-point ** :  -0.3750 0.1250 0.1250  plane waves:    3582
 k-point ** :  -0.3393 0.1250 0.1250  plane waves:    3575
 k-point ** :  -0.3036 0.1250 0.1250  plane waves:    3581
 k-point ** :  -0.2679 0.1250 0.1250  plane waves:    3586
 k-point ** :  -0.2321 0.1250 0.1250  plane waves:    3599
 k-point ** :  -0.1964 0.1250 0.1250  plane waves:    3603
 k-point ** :  -0.1607 0.1250 0.1250  plane waves:    3607
 k-point ** :  -0.1250 0.1250 0.1250  plane waves:    3627
 k-point ** :  -0.0893 0.1250 0.1250  plane waves:    3633
 k-point ** :  -0.0536 0.1250 0.1250  plane waves:    3640
 k-point ** :  -0.0179 0.1250 0.1250  plane waves:    3639
 k-point ** :   0.0179 0.1607 0.1250  plane waves:    3631
 k-point ** :   0.0536 0.1607 0.1250  plane waves:    3624
 k-point ** :   0.0893 0.1607 0.1250  plane waves:    3621
 k-point ** :   0.1250 0.1607 0.1250  plane waves:    3608
 k-point ** :   0.1607 0.1607 0.1250  plane waves:    3610
 k-point ** :   0.1964 0.1607 0.1250  plane waves:    3603
 k-point ** :   0.2321 0.1607 0.1250  plane waves:    3595
 k-point ** :   0.2679 0.1607 0.1250  plane waves:    3588
 k-point ** :   0.3036 0.1607 0.1250  plane waves:    3577
 k-point ** :   0.3393 0.1607 0.1250  plane waves:    3580
 k-point ** :   0.3750 0.1607 0.1250  plane waves:    3587
 k-point ** :   0.4107 0.1607 0.1250  plane waves:    3586
 k-point ** :   0.4464 0.1607 0.1250  plane waves:    3587
 k-point ** :   0.4821 0.1607 0.1250  plane waves:    3589
 k-point ** :  -0.4821 0.1607 0.1250  plane waves:    3589
 k-point ** :  -0.4464 0.1607 0.1250  plane waves:    3589
 k-point ** :  -0.4107 0.1607 0.1250  plane waves:    3588
 k-point ** :  -0.3750 0.1607 0.1250  plane waves:    3587
 k-point ** :  -0.3393 0.1607 0.1250  plane waves:    3580
 k-point ** :  -0.3036 0.1607 0.1250  plane waves:    3579
 k-point ** :  -0.2679 0.1607 0.1250  plane waves:    3585
 k-point ** :  -0.2321 0.1607 0.1250  plane waves:    3596
 k-point ** :  -0.1964 0.1607 0.1250  plane waves:    3601
 k-point ** :  -0.1607 0.1607 0.1250  plane waves:    3610
 k-point ** :  -0.1250 0.1607 0.1250  plane waves:    3607
 k-point ** :  -0.0893 0.1607 0.1250  plane waves:    3622
 k-point ** :  -0.0536 0.1607 0.1250  plane waves:    3622
 k-point ** :  -0.0179 0.1607 0.1250  plane waves:    3632
 k-point ** :   0.0179 0.1964 0.1250  plane waves:    3615
 k-point ** :   0.0536 0.1964 0.1250  plane waves:    3614
 k-point ** :   0.0893 0.1964 0.1250  plane waves:    3603
 k-point ** :   0.1250 0.1964 0.1250  plane waves:    3603
 k-point ** :   0.1607 0.1964 0.1250  plane waves:    3603
 k-point ** :   0.1964 0.1964 0.1250  plane waves:    3594
 k-point ** :   0.2321 0.1964 0.1250  plane waves:    3593
 k-point ** :   0.2679 0.1964 0.1250  plane waves:    3585
 k-point ** :   0.3036 0.1964 0.1250  plane waves:    3576
 k-point ** :   0.3393 0.1964 0.1250  plane waves:    3581
 k-point ** :   0.3750 0.1964 0.1250  plane waves:    3589
 k-point ** :   0.4107 0.1964 0.1250  plane waves:    3588
 k-point ** :   0.4464 0.1964 0.1250  plane waves:    3594
 k-point ** :   0.4821 0.1964 0.1250  plane waves:    3591
 k-point ** :  -0.4821 0.1964 0.1250  plane waves:    3591
 k-point ** :  -0.4464 0.1964 0.1250  plane waves:    3596
 k-point ** :  -0.4107 0.1964 0.1250  plane waves:    3588
 k-point ** :  -0.3750 0.1964 0.1250  plane waves:    3590
 k-point ** :  -0.3393 0.1964 0.1250  plane waves:    3579
[...]
 k-point ** :   0.4821 0.4821 0.3750  plane waves:    3587
 k-point ** :  -0.4821 0.4821 0.3750  plane waves:    3587
 k-point ** :  -0.4464 0.4821 0.3750  plane waves:    3572
 k-point ** :  -0.4107 0.4821 0.3750  plane waves:    3576
 k-point ** :  -0.3750 0.4821 0.3750  plane waves:    3577
 k-point ** :  -0.3393 0.4821 0.3750  plane waves:    3585
 k-point ** :  -0.3036 0.4821 0.3750  plane waves:    3584
 k-point ** :  -0.2679 0.4821 0.3750  plane waves:    3583
 k-point ** :  -0.2321 0.4821 0.3750  plane waves:    3590
 k-point ** :  -0.1964 0.4821 0.3750  plane waves:    3591
 k-point ** :  -0.1607 0.4821 0.3750  plane waves:    3589
 k-point ** :  -0.1250 0.4821 0.3750  plane waves:    3585
 k-point ** :  -0.0893 0.4821 0.3750  plane waves:    3576
 k-point ** :  -0.0536 0.4821 0.3750  plane waves:    3567
 k-point ** :  -0.0179 0.4821 0.3750  plane waves:    3575

 maximum and minimum number of plane-waves per node :      3652     3552

 maximum number of plane-waves:      3652
 maximum index in each direction:
   IXMAX=    5   IYMAX=    4   IZMAX=   39
   IXMIN=   -5   IYMIN=   -5   IZMIN=  -39

 serial   3D FFT for wavefunctions
 parallel 3D FFT for charge:
    minimum data exchange during FFTs selected (reduces bandwidth)

 Broyden mixing: mesh for mixing (old mesh)
   NGX =  9   NGY =  9   NGZ = 79
  (NGX  = 40   NGY  = 40   NGZ  =320)
  gives a total of   6399 points

 initial charge density was supplied:
 charge density of overlapping atoms calculated
 number of electron      18.0000000 magnetization
 keeping initial charge density in first step

 Maximum index for non-local projection operator         3490
 Maximum index for augmentation-charges         1073 (set IRDMAX)

 First call to EWALD:  gamma=   0.304
 Maximum number of real-space cells 5x 5x 1
 Maximum number of reciprocal cells 2x 2x10

--------------------------------------- Iteration      1(   1)  ---------------------------------------

 eigenvalue-minimisations  : 50176
 total energy-change (2. order) :-0.2209367E+00  (-0.5847212E+03)
 number of electron      18.0000000 magnetization
 augmentation part       18.0000000 magnetization

 Free energy of the ion-electron system (eV)
  alpha Z        PSCENC =        -0.61174128
  Ewald energy   TEWEN  =      1425.38636097
  -Hartree energ DENC   =     -1738.66881055
  -exchange      EXHF   =         0.00000000
  -V(xc)+E(xc)   XCENC  =      -158.47663875
  PAW double counting   =       397.20094276     -205.47372454
  entropy T*S    EENTRO =        -0.00006491
  eigenvalues    EBANDS =       -40.80618635
  atomic energy  EATOM  =       321.22892593
  Solvation  Ediel_sol  =         0.00000000
  free energy    TOTEN  =        -0.22093673 eV

  energy without entropy =       -0.22087182  energy(sigma->0) =       -0.22091509

[...]

 Broyden mixing:
  rms(total) = 0.34357E+00    rms(broyden)= 0.34357E+00
  rms(prec ) = 0.49091E+00
  weight for this iteration     100.00

[...]

 eigenvalue-minimisations  : 56775
 total energy-change (2. order) : 0.3462813E+00  (-0.5326434E-02)
 number of electron      18.0000000 magnetization
 augmentation part       -0.2387945 magnetization

[...]

 eigenvalues of (default mixing * dielectric matrix)
  average eigenvalue GAMMA=   1.1415
  1.1415

[...]

 eigenvalue-minimisations  : 54526
 total energy-change (2. order) : 0.2694822E-04  (-0.8063757E-05)
 number of electron      18.0000000 magnetization
 augmentation part       -0.2449780 magnetization

[...]

 Broyden mixing:
  rms(total) = 0.30163E-04    rms(broyden)= 0.30163E-04
  rms(prec ) = 0.31514E-04
  weight for this iteration     100.00

 eigenvalues of (default mixing * dielectric matrix)
  average eigenvalue GAMMA=   2.4547
  8.8332  5.4948  3.3564  2.8164  2.8164  2.4695  1.9087  0.4886  1.5280  1.0452
  0.9848  0.9848  0.8680  0.7704

[...]

--------------------------------------- Iteration      1(  20)  ---------------------------------------

 eigenvalue-minimisations  : 38776
 total energy-change (2. order) :-0.3068888E-06  (-0.1457192E-08)
 number of electron      18.0000000 magnetization
 augmentation part       -0.2450430 magnetization

 Free energy of the ion-electron system (eV)
  alpha Z        PSCENC =        -0.61174128
  Ewald energy   TEWEN  =      1425.38636097
  -Hartree energ DENC   =     -1760.51278271
  -exchange      EXHF   =         0.00000000
  -V(xc)+E(xc)   XCENC  =      -157.75860447
  PAW double counting   =       800.34177121     -608.68594833
  entropy T*S    EENTRO =         0.00030708
  eigenvalues    EBANDS =       -40.91974512
  atomic energy  EATOM  =       321.22892593
  Solvation  Ediel_sol  =         0.00000000
  free energy    TOTEN  =       -21.53145673 eV

  energy without entropy =      -21.53176381  energy(sigma->0) =      -21.53155909

 average (electrostatic) potential at core
  the test charge radii are     1.0406
  (the norm of the test charge is              1.0000)
       1 -78.7045       2 -78.7064       3 -78.6970       4 -78.6970       5 -78.7064
       6 -78.7045

 E-fermi :   1.9541     XC(G=0):  -5.9041     alpha+bet : -7.4509

 k-point     1 :       0.0179    0.0179    0.1250
  band No.  band energies     occupation
      1      -8.9849      2.00000
      2      -8.3202      2.00000
      3      -7.2332      2.00000
      4      -5.7651      2.00000
      5      -3.9576      2.00000
      6      -1.7859      2.00000
      7      -0.2534      2.00000
      8       2.5663     -0.00013
      9       4.5836     -0.00000
     10       5.8200     -0.00000
     11       6.2670     -0.00000
     12       6.9514     -0.00000
     13       7.5659      0.00000
     14       7.6175      0.00000
     15       7.6347      0.00000
     16       8.1824      0.00000
     17       8.1910      0.00000
     18       8.2409      0.00000
     19       8.5698      0.00000
     20       8.7887      0.00000
     21       9.1655      0.00000
     22       9.7699      0.00000
     23       9.9213      0.00000
     24      10.2211      0.00000
     25      10.4674      0.00000
     26      10.9946      0.00000
     27      11.0959      0.00000
     28      11.3387      0.00000
     29      11.5692      0.00000
     30      11.9503      0.00000
     31      12.1067      0.00000
     32      12.7057      0.00000

[...]

 k-point   784 :      -0.0179    0.4821    0.3750
  band No.  band energies     occupation
      1      -4.8392      2.00000
      2      -4.2248      2.00000
      3      -4.1796      2.00000
      4      -3.5753      2.00000
      5      -3.1177      2.00000
      6      -2.5052      2.00000
      7      -1.6967      2.00000
      8      -1.0874      2.00000
      9       0.0797      2.00000
     10       0.6697      2.00000
     11       2.2445     -0.05946
     12       2.7598     -0.00000
     13       3.8223     -0.00000
     14       4.3321     -0.00000
     15       6.6361     -0.00000
     16       7.1971     -0.00000
     17       8.7232      0.00000
     18       9.2958      0.00000
     19       9.8711      0.00000
     20      10.4939      0.00000
     21      10.7512      0.00000
     22      11.1847      0.00000
     23      11.2162      0.00000
     24      11.3853      0.00000
     25      11.7302      0.00000
     26      11.7761      0.00000
     27      11.8372      0.00000
     28      12.3065      0.00000
     29      12.6507      0.00000
     30      12.8273      0.00000
     31      13.4334      0.00000
     32      13.9854      0.00000

 soft charge-density along one line, spin component           1
         0         1         2         3         4         5         6         7         8         9
 total charge-density along one line

------------------------ aborting loop because EDIFF is reached ----------------------------------------

  FORCE on cell =-STRESS in cart. coord.  units (eV):
  Direction    XX          YY          ZZ          XY          YZ          ZX
  Alpha Z    -0.61174    -0.61174    -0.61174
  Ewald    1714.94865  1714.94869 -2004.51112    -0.00000     0.00000    -0.03179
  Hartree  1759.94736  1759.94736 -1759.38514    -0.00000     0.00000    -0.00011
  E(xc)     -50.49945   -50.49946   -50.61527    -0.00000    -0.00000     0.00093
  Local   -3620.05131 -3620.05135  3620.09201     0.00000    -0.00000     0.03257
  n-local   115.22648   115.22649   113.24730    -0.00000     0.00000    -0.01051
  augment    -6.55757    -6.55757    -6.49392     0.00000     0.00000     0.00056
  Kinetic    86.10420    86.10420    88.82537     0.00000     0.00002    -0.00034
  Fock        0.00000     0.00000     0.00000     0.00000     0.00000     0.00000
  Total      -1.49338    -1.49338     0.54750     0.00000    -0.00000    -0.00869
  in kB     -12.10493   -12.10493     4.43783     0.00000    -0.00000    -0.07040

 VOLUME and BASIS-vectors are now :
  energy-cutoff  :      400.00
  volume of cell :      197.66
      direct lattice vectors                 reciprocal lattice vectors
     2.855954575  0.000000000  0.000000000     0.350145625  0.000000000 -0.000144488
    -0.000000000  2.855954575  0.000000000     0.000000000  0.350145625  0.000000000
     0.010000000  0.000000000 24.233578159    -0.000000000 -0.000000000  0.041265058

  length of vectors
     2.855954575  2.855954575 24.233580222     0.350145655  0.350145625  0.041265058

 FORCES acting on ions
    electron-ion (+dipol)            ewald-force                    non-local-force                 convergence-correction
   -.299E-03 0.515E-14 -.150E+03   0.103E-03 -.939E-14 0.150E+03   0.219E-03 0.000E+00 0.271E-01   0.345E-08 0.414E-17 -.307E-03
   0.421E-02 0.105E-13 -.246E+03   -.321E-02 -.175E-13 0.246E+03   -.187E-02 0.000E+00 0.804E+00   -.348E-08 -.265E-17 -.205E-03
   -.658E-04 -.142E-13 0.500E+02   0.177E-05 -.312E-16 -.499E+02   0.153E-03 0.000E+00 -.103E+00   0.340E-08 0.497E-19 0.830E-04
   0.658E-04 0.241E-13 -.500E+02   -.177E-05 0.590E-15 0.499E+02   -.153E-03 0.000E+00 0.103E+00   -.340E-08 -.436E-17 -.830E-04
   -.421E-02 -.584E-14 0.246E+03   0.321E-02 0.181E-13 -.246E+03   0.187E-02 0.000E+00 -.804E+00   0.348E-08 0.766E-17 0.205E-03
   0.299E-03 -.453E-13 0.150E+03   -.103E-03 0.995E-14 -.150E+03   -.219E-03 0.000E+00 -.271E-01   -.345E-08 -.218E-16 0.307E-03
   -.100E-13 -.255E-13 0.148E-11   0.275E-14 0.168E-14 0.000E+00   0.108E-18 0.000E+00 -.111E-15   -.104E-15 -.170E-16 0.771E-13

 POSITION                                       TOTAL-FORCE (eV/Angst)
      0.00875      0.00000     21.20438         0.000023      0.000000     -0.063620
      1.43756      1.42798     23.22385        -0.000876      0.000000      0.089511
      0.00708      0.00000     17.16545         0.000089      0.000000     -0.021352
      1.43589      1.42798     19.18492        -0.000089      0.000000      0.021352
      0.00542      0.00000     13.12652         0.000876      0.000000     -0.089511
      1.43423      1.42798     15.14599        -0.000023      0.000000      0.063620
    total drift:                               -0.000000     -0.000000      0.000000

  FREE ENERGIE OF THE ION-ELECTRON SYSTEM (eV)
  free  energy   TOTEN  =       -21.53145673 eV

  energy  without entropy=      -21.53176381  energy(sigma->0) =      -21.53155909