 vasp.5.4.4.18Apr17-6-g9f103f2a35 (build Nov 07 2022 11:18:25) complex

 executed on             LinuxIFC date 2024.05.28  09:34:31

 INCAR:
 POTCAR:    PAW_PBE Al 04Jan2001

   TITEL  = PAW_PBE Al 04Jan2001
   POMASS =   26.981; ZVAL   =    3.000    mass and valenz
   ENMAX  =  240.300; ENMIN  =  180.225 eV

 Optimization of the real space projectors (new method)

 maximal supplied QI-value         = 19.84
 optimisation between [QCUT,QGAM] = [ 10.12, 20.44] = [ 28.68,116.96] Ry
 Optimized for a Real-space Cutoff    1.38 Angstroem

   l    n(q)    QCUT    max X(q) W(low)/X(q) W(high)/X(q)  e(spline)
   0      8    10.119   176.870    0.39E-04    0.93E-04    0.54E-07
   0      8    10.119   105.762    0.37E-04    0.91E-04    0.53E-07
   1      8    10.119    55.370    0.18E-03    0.13E-03    0.19E-06
   1      8    10.119    20.208    0.17E-03    0.12E-03    0.18E-06
  PAW_PBE Al 04Jan2001                  :

 POSCAR: Al16
  positions in direct lattice
 exchange correlation table for  LEXCH =        8
   RHO(1)=    0.500       N(1)  =     2000
   RHO(2)=  100.500       N(2)  =     4000

 ion  position               nearest neighbor table
   1  0.000  0.672  0.891-   7 2.86   4 2.86   3 2.86   8 2.86   2 2.86   6 2.86   3 2.86   8 2.86
                             7 2.86   4 2.86
   2  0.000  0.359  0.953-   8 2.86   3 2.86   4 2.86   1 2.86   3 2.86   4 2.86   8 2.86
   3  0.500  0.016  0.922-   6 2.86   1 2.86   2 2.86   8 2.86   4 2.86   1 2.86   2 2.86   6 2.86

   4  0.500  0.703  0.984-   1 2.86   2 2.86   3 2.86   2 2.86   1 2.86
   5  0.000  0.297  0.766-  11 2.86   8 2.86   7 2.86  12 2.86   6 2.86  10 2.86   7 2.86  12 2.86
                            11 2.86   8 2.86
   6  0.000  0.984  0.828-  12 2.86   3 2.86   7 2.86   8 2.86   1 2.86   5 2.86   7 2.86   8 2.86
                             3 2.86  12 2.86
   7  0.500  0.641  0.797-  10 2.86   1 2.86   5 2.86   6 2.86   8 2.86  12 2.86   5 2.86   6 2.86
                             1 2.86  10 2.86
   8  0.500  0.328  0.859-   5 2.86   2 2.86   1 2.86   6 2.86   3 2.86   7 2.86   1 2.86   6 2.86
                             5 2.86   2 2.86
   9  0.000  0.922  0.641-  15 2.86  12 2.86  11 2.86  16 2.86  10 2.86  14 2.86  11 2.86  16 2.86
                            15 2.86  12 2.86
  10  0.000  0.609  0.703-  16 2.86   7 2.86  11 2.86  12 2.86   5 2.86   9 2.86  11 2.86  12 2.86
                             7 2.86  16 2.86
  11  0.500  0.266  0.672-  14 2.86   5 2.86   9 2.86  10 2.86  12 2.86  16 2.86   9 2.86  10 2.86
                             5 2.86  14 2.86
  12  0.500  0.953  0.734-   9 2.86   6 2.86   5 2.86  10 2.86   7 2.86  11 2.86   5 2.86  10 2.86
                             9 2.86   6 2.86
  13  0.000  0.547  0.516-  16 2.86  15 2.86  14 2.86  15 2.86  16 2.86
  14  0.000  0.234  0.578-  11 2.86  15 2.86  16 2.86  13 2.86   9 2.86  15 2.86  16 2.86  11 2.86

  15  0.500  0.891  0.547-   9 2.86  13 2.86  14 2.86  16 2.86  13 2.86  14 2.86   9 2.86
  16  0.500  0.578  0.609-  13 2.86  10 2.86   9 2.86  14 2.86  11 2.86  15 2.86   9 2.86  14 2.86
                            13 2.86  10 2.86

  LATTYP: Found a triclinic cell.
 ALAT       =     7.5561455606
 B/A-ratio  =     0.3779644730
 C/A-ratio  =     3.8172542911
 COS(alpha) =     0.0003466958
 COS(beta)  =     0.3743716105
 COS(gamma) =     0.3779644730

  Lattice vectors:

 A1 = (  -2.8559545748,  -6.9684638334,   0.6159310039)
 A2 = (  -2.8559545748,   0.0000000000,   0.0000000000)
 A3 = (  -0.0100000000, -13.9369276669, -25.2531711593)

Analysis of symmetry for initial positions (statically):
 Subroutine PRICEL returns:
 Original cell was already a primitive cell.

 Routine SETGRP: Setting up the symmetry group for a
 triclinic supercell.

 Subroutine GETGRP returns: Found  2 space group operations
 (whereof  1 operations were pure point group operations)
 out of a pool of  2 trial point group operations.

The static configuration has the point symmetry C_1 .
 The point group associated with its full space group is S_2 .

Analysis of symmetry for dynamics (positions and initial velocities):
 Subroutine PRICEL returns:
 Original cell was already a primitive cell.

 Routine SETGRP: Setting up the symmetry group for a
 triclinic supercell.

 Subroutine GETGRP returns: Found  2 space group operations
 (whereof  1 operations were pure point group operations)
 out of a pool of  2 trial point group operations.

The dynamic configuration has the point symmetry C_1 .
 The point group associated with its full space group is S_2 .

 Subroutine INISYM returns: Found  2 space group operations
 (whereof  1 operations are pure point group operations),
 and found     1 'primitive' translations

 KPOINTS: Automatic kpoint scheme

Automatic generation of k-mesh.
Space group operators:
 irot       det(A)        alpha          n_x          n_y          n_z        tau_x        tau_y        tau_z
    1     1.000000     0.000000     1.000000     0.000000     0.000000     0.000000     0.000000     0.000000
    2    -1.000000     0.000000     1.000000     0.000000     0.000000    -1.500000    -1.750000    -0.500000

 Subroutine IBZKPT returns following result:

 Found    504 irreducible k-points:

 Following reciprocal coordinates:
            Coordinates               Weight
  0.017857  0.041667  0.000000      2.000000
  0.053571  0.041667  0.000000      2.000000
  0.089286  0.041667 -0.000000      2.000000
  0.125000  0.041667 -0.000000      2.000000
  0.160714  0.041667  0.000000      2.000000
  0.196429  0.041667  0.000000      2.000000
  0.232143  0.041667 -0.000000      2.000000
  0.267857  0.041667  0.000000      2.000000
  0.303571  0.041667 -0.000000      2.000000
  0.339286  0.041667 -0.000000      2.000000
  0.375000  0.041667 -0.000000      2.000000
  0.410714  0.041667 -0.000000      2.000000
  0.446429  0.041667 -0.000000      2.000000
  0.482143  0.041667 -0.000000      2.000000
 -0.482143  0.041667  0.000000      2.000000
 -0.446429  0.041667  0.000000      2.000000
 -0.410714  0.041667  0.000000      2.000000
 -0.375000  0.041667  0.000000      2.000000
 -0.339286  0.041667  0.000000      2.000000
 -0.303571  0.041667  0.000000      2.000000
 -0.267857  0.041667  0.000000      2.000000
 -0.232143  0.041667 -0.000000      2.000000
 -0.196429  0.041667  0.000000      2.000000
 -0.160714  0.041667  0.000000      2.000000
 -0.125000  0.041667  0.000000      2.000000
 -0.089286  0.041667  0.000000      2.000000
 -0.053571  0.041667  0.000000      2.000000
 -0.017857  0.041667  0.000000      2.000000
  0.017857  0.125000  0.000000      2.000000
  0.053571  0.125000  0.000000      2.000000
  0.089286  0.125000 -0.000000      2.000000
  0.125000  0.125000 -0.000000      2.000000
  0.160714  0.125000  0.000000      2.000000
  0.196429  0.125000  0.000000      2.000000
  0.232143  0.125000 -0.000000      2.000000
  0.267857  0.125000  0.000000      2.000000
  0.303571  0.125000 -0.000000      2.000000
  0.339286  0.125000 -0.000000      2.000000
  0.375000  0.125000 -0.000000      2.000000
  0.410714  0.125000 -0.000000      2.000000
  0.446429  0.125000 -0.000000      2.000000
  0.482143  0.125000 -0.000000      2.000000
 -0.482143  0.125000  0.000000      2.000000
 -0.446429  0.125000  0.000000      2.000000
 -0.410714  0.125000  0.000000      2.000000
 -0.375000  0.125000  0.000000      2.000000
 -0.339286  0.125000  0.000000      2.000000
 -0.303571  0.125000  0.000000      2.000000
 -0.267857  0.125000  0.000000      2.000000
 -0.232143  0.125000 -0.000000      2.000000
 -0.196429  0.125000  0.000000      2.000000
 -0.160714  0.125000  0.000000      2.000000
 -0.125000  0.125000  0.000000      2.000000
 -0.089286  0.125000  0.000000      2.000000
 -0.053571  0.125000  0.000000      2.000000
 -0.017857  0.125000  0.000000      2.000000
  0.017857  0.208333  0.000000      2.000000
  0.053571  0.208333  0.000000      2.000000
  0.089286  0.208333 -0.000000      2.000000
  0.125000  0.208333 -0.000000      2.000000
[...]
  0.482143 -0.041667  0.333333      2.000000
 -0.482143 -0.041667  0.333333      2.000000
 -0.446429 -0.041667  0.333333      2.000000
 -0.410714 -0.041667  0.333333      2.000000
 -0.375000 -0.041667  0.333333      2.000000
 -0.339286 -0.041667  0.333333      2.000000
 -0.303571 -0.041667  0.333333      2.000000
 -0.267857 -0.041667  0.333333      2.000000
 -0.232143 -0.041667  0.333333      2.000000
 -0.196429 -0.041667  0.333333      2.000000
 -0.160714 -0.041667  0.333333      2.000000
 -0.125000 -0.041667  0.333333      2.000000
 -0.089286 -0.041667  0.333333      2.000000
 -0.053571 -0.041667  0.333333      2.000000
 -0.017857 -0.041667  0.333333      2.000000

 Following cartesian coordinates:
            Coordinates               Weight
  0.006253  0.005979 -0.000002      2.000000
  0.018758  0.005979 -0.000007      2.000000
  0.031263  0.005978 -0.000012      2.000000
  0.043768  0.005978 -0.000017      2.000000
  0.056273  0.005977 -0.000021      2.000000
  0.068779  0.005977 -0.000026      2.000000
  0.081284  0.005977 -0.000031      2.000000
  0.093789  0.005976 -0.000035      2.000000
  0.106294  0.005976 -0.000040      2.000000
  0.118799  0.005975 -0.000045      2.000000
  0.131305  0.005975 -0.000050      2.000000
  0.143810  0.005975 -0.000054      2.000000
  0.156315  0.005974 -0.000059      2.000000
  0.168820  0.005974 -0.000064      2.000000
 -0.168820  0.005985  0.000064      2.000000
 -0.156315  0.005985  0.000059      2.000000
 -0.143810  0.005984  0.000054      2.000000
 -0.131305  0.005984  0.000050      2.000000
 -0.118799  0.005983  0.000045      2.000000
 -0.106294  0.005983  0.000040      2.000000
 -0.093789  0.005982  0.000035      2.000000
 -0.081284  0.005982  0.000031      2.000000
 -0.068779  0.005982  0.000026      2.000000
 -0.056273  0.005981  0.000021      2.000000
 -0.043768  0.005981  0.000017      2.000000
 -0.031263  0.005980  0.000012      2.000000
 -0.018758  0.005980  0.000007      2.000000
 -0.006253  0.005980  0.000002      2.000000
  0.006253  0.017938 -0.000002      2.000000
  0.018758  0.017937 -0.000007      2.000000
  0.031263  0.017937 -0.000012      2.000000
  0.043768  0.017936 -0.000017      2.000000
  0.056273  0.017936 -0.000021      2.000000
  0.068779  0.017936 -0.000026      2.000000
  0.081284  0.017935 -0.000031      2.000000
  0.093789  0.017935 -0.000035      2.000000
  0.106294  0.017934 -0.000040      2.000000
  0.118799  0.017934 -0.000045      2.000000
  0.131305  0.017934 -0.000050      2.000000
  0.143810  0.017933 -0.000054      2.000000
  0.156315  0.017933 -0.000059      2.000000
  0.168820  0.017932 -0.000064      2.000000
 -0.168820  0.017944  0.000064      2.000000
 -0.156315  0.017943  0.000059      2.000000
 -0.143810  0.017943  0.000054      2.000000
 -0.131305  0.017942  0.000050      2.000000
 -0.118799  0.017942  0.000045      2.000000
 -0.106294  0.017942  0.000040      2.000000
 -0.093789  0.017941  0.000035      2.000000
 -0.081284  0.017941  0.000031      2.000000
 -0.068779  0.017940  0.000026      2.000000
 -0.056273  0.017940  0.000021      2.000000
 -0.043768  0.017939  0.000017      2.000000
 -0.031263  0.017939  0.000012      2.000000
[...]
 k-point ** :   0.3036 0.4583-0.0000  plane waves:    9558
 k-point ** :   0.3393 0.4583-0.0000  plane waves:    9537
 k-point ** :   0.3750 0.4583-0.0000  plane waves:    9541
 k-point ** :   0.4107 0.4583-0.0000  plane waves:    9549
 k-point ** :   0.4464 0.4583-0.0000  plane waves:    9526
 k-point ** :   0.4821 0.4583-0.0000  plane waves:    9541
 k-point ** :  -0.4821 0.4583 0.0000  plane waves:    9545
 k-point ** :  -0.4464 0.4583 0.0000  plane waves:    9525
 k-point ** :  -0.4107 0.4583 0.0000  plane waves:    9548
 k-point ** :  -0.3750 0.4583 0.0000  plane waves:    9542
 k-point ** :  -0.3393 0.4583 0.0000  plane waves:    9538
[...]
 k-point ** :   0.4821-0.0417 0.3333  plane waves:    9551
 k-point ** :  -0.4821-0.0417 0.3333  plane waves:    9556
 k-point ** :  -0.4464-0.0417 0.3333  plane waves:    9569
 k-point ** :  -0.4107-0.0417 0.3333  plane waves:    9552
 k-point ** :  -0.3750-0.0417 0.3333  plane waves:    9535
 k-point ** :  -0.3393-0.0417 0.3333  plane waves:    9525
 k-point ** :  -0.3036-0.0417 0.3333  plane waves:    9540
 k-point ** :  -0.2679-0.0417 0.3333  plane waves:    9571
 k-point ** :  -0.2321-0.0417 0.3333  plane waves:    9586
 k-point ** :  -0.1964-0.0417 0.3333  plane waves:    9599
 k-point ** :  -0.1607-0.0417 0.3333  plane waves:    9605
 k-point ** :  -0.1250-0.0417 0.3333  plane waves:    9624
 k-point ** :  -0.0893-0.0417 0.3333  plane waves:    9624
 k-point ** :  -0.0536-0.0417 0.3333  plane waves:    9627
 k-point ** :  -0.0179-0.0417 0.3333  plane waves:    9628

 maximum and minimum number of plane-waves per node :      9639     9523

 maximum number of plane-waves:      9639
 maximum index in each direction:
   IXMAX=    5   IYMAX=   11   IZMAX=   43
   IXMIN=   -5   IYMIN=  -11   IZMIN=  -43

 serial   3D FFT for wavefunctions
 parallel 3D FFT for charge:
    minimum data exchange during FFTs selected (reduces bandwidth)

 Broyden mixing: mesh for mixing (old mesh)
   NGX =  9   NGY = 23   NGZ = 87
  (NGX  = 40   NGY  = 96   NGZ  =360)
  gives a total of  18009 points

 initial charge density was supplied:
 charge density of overlapping atoms calculated
 number of electron      48.0000000 magnetization
 keeping initial charge density in first step

 Maximum index for non-local projection operator         3524
 Maximum index for augmentation-charges         1081 (set IRDMAX)

 First call to EWALD:  gamma=   0.219
 Maximum number of real-space cells 7x 3x 1
 Maximum number of reciprocal cells 1x 2x 8

--------------------------------------- Iteration      1(   1)  ---------------------------------------

 eigenvalue-minimisations  : 64512
 total energy-change (2. order) : 0.4771949E+02  (-0.1334978E+04)
 number of electron      48.0000000 magnetization
 augmentation part       48.0000000 magnetization

 Free energy of the ion-electron system (eV)
  alpha Z        PSCENC =        -1.63131009
  Ewald energy   TEWEN  =      4607.58592117
  -Hartree energ DENC   =     -5442.12525864
  -exchange      EXHF   =         0.00000000
  -V(xc)+E(xc)   XCENC  =      -422.50074340
  PAW double counting   =      1059.20251401     -547.92993211
  entropy T*S    EENTRO =        -0.00062701
  eigenvalues    EBANDS =       -61.49154485
  atomic energy  EATOM  =       856.61046915
  Solvation  Ediel_sol  =         0.00000000
  free energy    TOTEN  =        47.71948824 eV

  energy without entropy =       47.72011525  energy(sigma->0) =       47.71969724

[...]

 eigenvalue-minimisations  : 89056
 total energy-change (2. order) :-0.1033675E+03  (-0.9742950E+02)
 number of electron      48.0000000 magnetization
 augmentation part       48.0000000 magnetization

[...]

 eigenvalue-minimisations  :108896
 total energy-change (2. order) :-0.1963230E+00  (-0.1963126E+00)
 number of electron      48.0000000 magnetization
 augmentation part       48.0000000 magnetization

[...]

 eigenvalue-minimisations  :101440
 total energy-change (2. order) :-0.2741689E-02  (-0.2741650E-02)
 number of electron      48.0000001 magnetization
 augmentation part       -0.6283849 magnetization

 Broyden mixing:
  rms(total) = 0.57302E+00    rms(broyden)= 0.57301E+00
  rms(prec ) = 0.79955E+00
  weight for this iteration     100.00

[...]

 eigenvalues of (default mixing * dielectric matrix)
  average eigenvalue GAMMA=   1.0281
  1.0281

[...]

 eigenvalue-minimisations  : 78194
 total energy-change (2. order) : 0.1175893E-02  (-0.1526265E-03)
 number of electron      48.0000001 magnetization
 augmentation part       -0.6491704 magnetization

[...]

 Broyden mixing:
  rms(total) = 0.45514E-04    rms(broyden)= 0.45514E-04
  rms(prec ) = 0.46375E-04
  weight for this iteration     100.00

 eigenvalues of (default mixing * dielectric matrix)
  average eigenvalue GAMMA=   2.3515
  8.9729  5.7372  3.6279  3.0272  2.6952  2.2414  1.9119  0.4131  1.4257  1.4257
  1.2108  1.0730  1.0730  0.8402  0.9747  0.9747

[...]

--------------------------------------- Iteration      1(  22)  ---------------------------------------

 eigenvalue-minimisations  : 50539
 total energy-change (2. order) :-0.9506230E-06  (-0.7902456E-08)
 number of electron      48.0000001 magnetization
 augmentation part       -0.6495523 magnetization

 Free energy of the ion-electron system (eV)
  alpha Z        PSCENC =        -1.63131009
  Ewald energy   TEWEN  =      4607.58592117
  -Hartree energ DENC   =     -5503.81581727
  -exchange      EXHF   =         0.00000000
  -V(xc)+E(xc)   XCENC  =      -420.53531946
  PAW double counting   =      2144.07807748    -1632.99450567
  entropy T*S    EENTRO =         0.00055076
  eigenvalues    EBANDS =      -106.85231511
  atomic energy  EATOM  =       856.61046915
  Solvation  Ediel_sol  =         0.00000000
  free energy    TOTEN  =       -57.55424905 eV

  energy without entropy =      -57.55479980  energy(sigma->0) =      -57.55443263

 average (electrostatic) potential at core
  the test charge radii are     1.0406
  (the norm of the test charge is              1.0000)
       1 -78.5960       2 -78.6927       3 -78.6508       4 -78.6738       5 -78.6399
       6 -78.6458       7 -78.6308       8 -78.6116       9 -78.6116      10 -78.6308
      11 -78.6458      12 -78.6399      13 -78.6738      14 -78.6508      15 -78.6927
      16 -78.5960

 E-fermi :   2.0047     XC(G=0):  -5.8817     alpha+bet : -7.4509

 k-point     1 :       0.0179    0.0417    0.0000
  band No.  band energies     occupation
      1      -8.9455      2.00000
      2      -8.3511      2.00000
      3      -7.4183      2.00000
      4      -6.2648      2.00000
      5      -6.1649      2.00000
      6      -5.7101      2.00000
      7      -5.6031      2.00000
      8      -5.1429      2.00000
      9      -4.9156      2.00000
     10      -4.5005      2.00000
     11      -4.1285      2.00000
     12      -3.6326      2.00000
     13      -2.9997      2.00000
     14      -2.6417      2.00000
     15      -2.0838      2.00000
     16      -1.2986      2.00000
     17      -0.9777      2.00000
     18      -0.3292      2.00000
     19       0.0712      2.00000
     20       1.0451      2.00000
     21       1.5380      2.00472
     22       2.1783     -0.01093
     23       2.2805     -0.06503
     24       2.7836     -0.00000
     25       3.0030     -0.00000
     26       3.1409     -0.00000
     27       3.4907     -0.00000
     28       3.7959     -0.00000
     29       3.8224     -0.00000
     30       4.2334     -0.00000
     31       4.5993     -0.00000
     32       4.9427     -0.00000
     33       5.0877     -0.00000
     34       5.6367     -0.00000
     35       5.7006     -0.00000
     36       5.9375     -0.00000
     37       6.2404     -0.00000
     38       6.4731     -0.00000
     39       6.7668     -0.00000
     40       6.8988     -0.00000
     41       7.2226     -0.00000
     42       7.4751      0.00000
     43       7.7008      0.00000
     44       7.8955      0.00000
     45       8.0463      0.00000
     46       8.1558      0.00000
     47       8.5699      0.00000
     48       8.7109      0.00000
     49       8.8751      0.00000
     50       8.9190      0.00000
     51       8.9480      0.00000
     52       9.0259      0.00000
     53       9.2902      0.00000
     54       9.4953      0.00000
     55       9.5587      0.00000
     56       9.9030      0.00000
     57       9.9721      0.00000
     58      10.0114      0.00000
     59      10.4112      0.00000
     60      10.4962      0.00000
     61      10.6473      0.00000
     62      10.9059      0.00000
     63      11.1195      0.00000
     64      11.1879      0.00000

[...]

 k-point   504 :      -0.0179   -0.0417    0.3333
  band No.  band energies     occupation
      1      -8.9455      2.00000
      2      -8.3511      2.00000
      3      -7.4183      2.00000
      4      -6.2648      2.00000
      5      -6.1649      2.00000
      6      -5.7101      2.00000
      7      -5.6031      2.00000
      8      -5.1429      2.00000
      9      -4.9156      2.00000
     10      -4.5005      2.00000
     11      -4.1285      2.00000
     12      -3.6326      2.00000
     13      -2.9997      2.00000
     14      -2.6417      2.00000
     15      -2.0838      2.00000
     16      -1.2986      2.00000
     17      -0.9777      2.00000
     18      -0.3292      2.00000
     19       0.0712      2.00000
     20       1.0451      2.00000
     21       1.5380      2.00472
     22       2.1783     -0.01093
     23       2.2805     -0.06503
     24       2.7836     -0.00000
     25       3.0031     -0.00000
     26       3.1409     -0.00000
     27       3.4907     -0.00000
     28       3.7959     -0.00000
     29       3.8224     -0.00000
     30       4.2332     -0.00000
     31       4.5991     -0.00000
     32       4.9378     -0.00000
     33       5.0777     -0.00000
     34       5.6365     -0.00000
     35       5.7920     -0.00000
     36       5.9561     -0.00000
     37       6.2133     -0.00000
     38       6.3181     -0.00000
     39       6.5907     -0.00000
     40       7.2159     -0.00000
     41       7.3617     -0.00000
     42       7.4533     -0.00000
     43       7.6948      0.00000
     44       7.9154      0.00000
     45       8.0534      0.00000
     46       8.1208      0.00000
     47       8.2024      0.00000
     48       8.6733      0.00000
     49       8.7327      0.00000
     50       8.9041      0.00000
     51       9.0013      0.00000
     52       9.1497      0.00000
     53       9.4809      0.00000
     54       9.6937      0.00000
     55       9.7256      0.00000
     56       9.9228      0.00000
     57      10.0184      0.00000
     58      10.4089      0.00000
     59      10.4964      0.00000
     60      10.6308      0.00000
     61      10.9063      0.00000
     62      11.1152      0.00000
     63      11.1703      0.00000
     64      11.5016      0.00000

 soft charge-density along one line, spin component           1
         0         1         2         3         4         5         6         7         8         9
 total charge-density along one line

------------------------ aborting loop because EDIFF is reached ----------------------------------------

  FORCE on cell =-STRESS in cart. coord.  units (eV):
  Direction    XX          YY          ZZ          XY          YZ          ZX
  Alpha Z    -1.63131    -1.63131    -1.63131
  Ewald    5385.08681  5266.25177 -6043.75461    -0.04016  -999.20909    -0.04984
  Hartree  5502.62112  5403.60278 -5402.40790    -0.00047  -960.43478     0.00025
  E(xc)    -134.77228  -134.86614  -135.09471     0.00084     0.00128     0.00177
  Local  -11274.55169-11056.37219 11061.66584     0.04043  1959.88697     0.05177
  n-local   306.75132   306.04402   302.32651    -0.00915    -0.04445    -0.02029
  augment   -17.39501   -17.35169   -17.23206     0.00036     0.00909     0.00102
  Kinetic   230.34937   231.27368   236.22879     0.00574    -0.49613    -0.00017
  Fock        0.00000     0.00000     0.00000     0.00000     0.00000     0.00000
  Total      -3.54166    -3.04909     0.10055    -0.00240    -0.28711    -0.01548
  in kB     -10.76535    -9.26811     0.30564    -0.00730    -0.87271    -0.04706

 VOLUME and BASIS-vectors are now :
  energy-cutoff  :      400.00
  volume of cell :      527.09
      direct lattice vectors                 reciprocal lattice vectors
     2.855954575  0.000000000  0.000000000     0.350145625 -0.000011685 -0.000132205
    -0.000000000  6.968463833 -0.615931004     0.000000000  0.143503651  0.000000000
     0.010000000  0.000000000 26.485033167    -0.000000000  0.003337294  0.037757174

  length of vectors
     2.855954575  6.995631437 26.485035055     0.350145650  0.143503651  0.037904376

 FORCES acting on ions
    electron-ion (+dipol)            ewald-force                    non-local-force                 convergence-correction
   0.101E-03 -.180E+02 -.180E+03   0.591E-04 0.179E+02 0.180E+03   -.803E-04 0.293E-01 -.256E+00   0.622E-09 0.134E-05 0.521E-05
   0.177E-02 -.119E+02 -.262E+03   -.129E-02 0.122E+02 0.261E+03   -.914E-03 -.232E+00 0.134E+01   0.199E-10 -.291E-05 0.248E-04
   0.272E-02 -.223E+02 -.230E+03   -.180E-02 0.223E+02 0.230E+03   -.142E-02 0.104E+00 0.813E+00   -.461E-09 0.427E-05 0.176E-04
   0.230E-02 -.325E+02 -.279E+03   -.191E-02 0.325E+02 0.277E+03   -.944E-03 -.662E-01 0.103E+01   0.150E-09 0.273E-06 0.157E-04
   -.282E-03 -.168E+01 -.203E+02   0.159E-06 0.160E+01 0.202E+02   0.208E-03 0.605E-01 0.870E-01   -.773E-09 0.234E-06 0.374E-05
   -.827E-05 -.926E+01 -.102E+03   0.110E-04 0.928E+01 0.102E+03   -.276E-04 -.491E-01 0.312E-01   -.558E-09 0.319E-06 0.672E-05
   0.129E-03 -.560E+01 -.607E+02   -.676E-06 0.557E+01 0.606E+02   -.449E-04 0.365E-01 0.107E+00   0.204E-09 -.373E-06 0.605E-05
   -.276E-03 -.111E+02 -.142E+03   -.528E-05 0.111E+02 0.142E+03   0.182E-03 0.980E-01 -.173E+00   0.146E-10 -.108E-06 0.350E-05
   0.276E-03 0.111E+02 0.142E+03   0.528E-05 -.111E+02 -.142E+03   -.182E-03 -.980E-01 0.173E+00   -.146E-10 0.108E-06 -.350E-05
   -.129E-03 0.560E+01 0.607E+02   0.676E-06 -.557E+01 -.606E+02   0.449E-04 -.365E-01 -.107E+00   -.204E-09 0.373E-06 -.605E-05
   0.827E-05 0.926E+01 0.102E+03   -.110E-04 -.928E+01 -.102E+03   0.276E-04 0.491E-01 -.312E-01   0.558E-09 -.319E-06 -.672E-05
   0.282E-03 0.168E+01 0.203E+02   -.159E-06 -.160E+01 -.202E+02   -.208E-03 -.605E-01 -.870E-01   0.773E-09 -.234E-06 -.374E-05
   -.230E-02 0.325E+02 0.279E+03   0.191E-02 -.325E+02 -.277E+03   0.944E-03 0.662E-01 -.103E+01   -.150E-09 -.273E-06 -.157E-04
   -.272E-02 0.223E+02 0.230E+03   0.180E-02 -.223E+02 -.230E+03   0.142E-02 -.104E+00 -.813E+00   0.461E-09 -.427E-05 -.176E-04
   -.177E-02 0.119E+02 0.262E+03   0.129E-02 -.122E+02 -.261E+03   0.914E-03 0.232E+00 -.134E+01   -.199E-10 0.291E-05 -.248E-04
   -.101E-03 0.180E+02 0.180E+03   -.591E-04 -.179E+02 -.180E+03   0.803E-04 -.293E-01 0.256E+00   -.622E-09 -.134E-05 -.521E-05
   -.168E-12 -.328E-13 0.683E-12   -.290E-14 0.142E-13 0.853E-13   0.705E-18 0.278E-16 0.000E+00   -.172E-16 -.179E-16 -.191E-13

 POSITION                                       TOTAL-FORCE (eV/Angst)
      0.00891      4.68194     23.17440         0.000080     -0.068422     -0.078131
      0.00953      2.50429     25.02220        -0.000430     -0.011049     -0.008450
      1.43720      0.10888     24.40627        -0.000493      0.087011      0.285687
      1.43782      4.89970     25.63813        -0.000551     -0.063161     -0.131948
      0.00766      2.06876     20.09475        -0.000073     -0.017709      0.030603
      0.00828      6.85958     21.32661        -0.000025     -0.026424      0.006079
      1.43595      4.46417     20.71068         0.000083      0.001220      0.080135
      1.43657      2.28653     22.55847        -0.000099      0.030386     -0.072703
      0.00641      6.42405     16.39916         0.000099     -0.030386      0.072703
      0.00703      4.24641     18.24696        -0.000083     -0.001220     -0.080135
      1.43470      1.85100     17.63102         0.000025      0.026424     -0.006079
      1.43532      6.64182     18.86289         0.000073      0.017709     -0.030603
      0.00516      3.81088     13.31951         0.000551      0.063161      0.131948
      0.00578      1.63323     15.16730         0.000493     -0.087011     -0.285687
      1.43345      6.20629     13.93544         0.000430      0.011049      0.008450
      1.43407      4.02864     15.78323        -0.000080      0.068422      0.078131
    total drift:                               -0.000000     -0.000000      0.000000

  FREE ENERGIE OF THE ION-ELECTRON SYSTEM (eV)
  free  energy   TOTEN  =       -57.55424905 eV

  energy  without entropy=      -57.55479980  energy(sigma->0) =      -57.55443263